p cnf 2545 17809
1 2 3 4 5 0
-1 -2 0
-1 -3 0
-1 -4 0
-1 -5 0
-2 -3 0
-2 -4 0
-2 -5 0
-3 -4 0
-3 -5 0
-4 -5 0
6 7 8 9 10 0
-6 -7 0
-6 -8 0
-6 -9 0
-6 -10 0
-7 -8 0
-7 -9 0
-7 -10 0
-8 -9 0
-8 -10 0
-9 -10 0
11 12 13 14 15 0
-11 -12 0
-11 -13 0
-11 -14 0
-11 -15 0
-12 -13 0
-12 -14 0
-12 -15 0
-13 -14 0
-13 -15 0
-14 -15 0
16 17 18 19 20 0
-16 -17 0
-16 -18 0
-16 -19 0
-16 -20 0
-17 -18 0
-17 -19 0
-17 -20 0
-18 -19 0
-18 -20 0
-19 -20 0
21 22 23 24 25 0
-21 -22 0
-21 -23 0
-21 -24 0
-21 -25 0
-22 -23 0
-22 -24 0
-22 -25 0
-23 -24 0
-23 -25 0
-24 -25 0
26 27 28 29 30 0
-26 -27 0
-26 -28 0
-26 -29 0
-26 -30 0
-27 -28 0
-27 -29 0
-27 -30 0
-28 -29 0
-28 -30 0
-29 -30 0
31 32 33 34 35 0
-31 -32 0
-31 -33 0
-31 -34 0
-31 -35 0
-32 -33 0
-32 -34 0
-32 -35 0
-33 -34 0
-33 -35 0
-34 -35 0
36 37 38 39 40 0
-36 -37 0
-36 -38 0
-36 -39 0
-36 -40 0
-37 -38 0
-37 -39 0
-37 -40 0
-38 -39 0
-38 -40 0
-39 -40 0
41 42 43 44 45 0
-41 -42 0
-41 -43 0
-41 -44 0
-41 -45 0
-42 -43 0
-42 -44 0
-42 -45 0
-43 -44 0
-43 -45 0
-44 -45 0
46 47 48 49 50 0
-46 -47 0
-46 -48 0
-46 -49 0
-46 -50 0
-47 -48 0
-47 -49 0
-47 -50 0
-48 -49 0
-48 -50 0
-49 -50 0
51 52 53 54 55 0
-51 -52 0
-51 -53 0
-51 -54 0
-51 -55 0
-52 -53 0
-52 -54 0
-52 -55 0
-53 -54 0
-53 -55 0
-54 -55 0
56 57 58 59 60 0
-56 -57 0
-56 -58 0
-56 -59 0
-56 -60 0
-57 -58 0
-57 -59 0
-57 -60 0
-58 -59 0
-58 -60 0
-59 -60 0
61 62 63 64 65 0
-61 -62 0
-61 -63 0
-61 -64 0
-61 -65 0
-62 -63 0
-62 -64 0
-62 -65 0
-63 -64 0
-63 -65 0
-64 -65 0
66 67 68 69 70 0
-66 -67 0
-66 -68 0
-66 -69 0
-66 -70 0
-67 -68 0
-67 -69 0
-67 -70 0
-68 -69 0
-68 -70 0
-69 -70 0
71 72 73 74 75 0
-71 -72 0
-71 -73 0
-71 -74 0
-71 -75 0
-72 -73 0
-72 -74 0
-72 -75 0
-73 -74 0
-73 -75 0
-74 -75 0
76 77 78 79 80 0
-76 -77 0
-76 -78 0
-76 -79 0
-76 -80 0
-77 -78 0
-77 -79 0
-77 -80 0
-78 -79 0
-78 -80 0
-79 -80 0
81 82 83 84 85 0
-81 -82 0
-81 -83 0
-81 -84 0
-81 -85 0
-82 -83 0
-82 -84 0
-82 -85 0
-83 -84 0
-83 -85 0
-84 -85 0
86 87 88 89 90 0
-86 -87 0
-86 -88 0
-86 -89 0
-86 -90 0
-87 -88 0
-87 -89 0
-87 -90 0
-88 -89 0
-88 -90 0
-89 -90 0
91 92 93 94 95 0
-91 -92 0
-91 -93 0
-91 -94 0
-91 -95 0
-92 -93 0
-92 -94 0
-92 -95 0
-93 -94 0
-93 -95 0
-94 -95 0
96 97 98 99 100 0
-96 -97 0
-96 -98 0
-96 -99 0
-96 -100 0
-97 -98 0
-97 -99 0
-97 -100 0
-98 -99 0
-98 -100 0
-99 -100 0
101 102 103 104 105 0
-101 -102 0
-101 -103 0
-101 -104 0
-101 -105 0
-102 -103 0
-102 -104 0
-102 -105 0
-103 -104 0
-103 -105 0
-104 -105 0
106 107 108 109 110 0
-106 -107 0
-106 -108 0
-106 -109 0
-106 -110 0
-107 -108 0
-107 -109 0
-107 -110 0
-108 -109 0
-108 -110 0
-109 -110 0
111 112 113 114 115 0
-111 -112 0
-111 -113 0
-111 -114 0
-111 -115 0
-112 -113 0
-112 -114 0
-112 -115 0
-113 -114 0
-113 -115 0
-114 -115 0
116 117 118 119 120 0
-116 -117 0
-116 -118 0
-116 -119 0
-116 -120 0
-117 -118 0
-117 -119 0
-117 -120 0
-118 -119 0
-118 -120 0
-119 -120 0
121 122 123 124 125 0
-121 -122 0
-121 -123 0
-121 -124 0
-121 -125 0
-122 -123 0
-122 -124 0
-122 -125 0
-123 -124 0
-123 -125 0
-124 -125 0
126 127 128 129 130 0
-126 -127 0
-126 -128 0
-126 -129 0
-126 -130 0
-127 -128 0
-127 -129 0
-127 -130 0
-128 -129 0
-128 -130 0
-129 -130 0
131 132 133 134 135 0
-131 -132 0
-131 -133 0
-131 -134 0
-131 -135 0
-132 -133 0
-132 -134 0
-132 -135 0
-133 -134 0
-133 -135 0
-134 -135 0
136 137 138 139 140 0
-136 -137 0
-136 -138 0
-136 -139 0
-136 -140 0
-137 -138 0
-137 -139 0
-137 -140 0
-138 -139 0
-138 -140 0
-139 -140 0
141 142 143 144 145 0
-141 -142 0
-141 -143 0
-141 -144 0
-141 -145 0
-142 -143 0
-142 -144 0
-142 -145 0
-143 -144 0
-143 -145 0
-144 -145 0
146 147 148 149 150 0
-146 -147 0
-146 -148 0
-146 -149 0
-146 -150 0
-147 -148 0
-147 -149 0
-147 -150 0
-148 -149 0
-148 -150 0
-149 -150 0
151 152 153 154 155 0
-151 -152 0
-151 -153 0
-151 -154 0
-151 -155 0
-152 -153 0
-152 -154 0
-152 -155 0
-153 -154 0
-153 -155 0
-154 -155 0
156 157 158 159 160 0
-156 -157 0
-156 -158 0
-156 -159 0
-156 -160 0
-157 -158 0
-157 -159 0
-157 -160 0
-158 -159 0
-158 -160 0
-159 -160 0
161 162 163 164 165 0
-161 -162 0
-161 -163 0
-161 -164 0
-161 -165 0
-162 -163 0
-162 -164 0
-162 -165 0
-163 -164 0
-163 -165 0
-164 -165 0
166 167 168 169 170 0
-166 -167 0
-166 -168 0
-166 -169 0
-166 -170 0
-167 -168 0
-167 -169 0
-167 -170 0
-168 -169 0
-168 -170 0
-169 -170 0
171 172 173 174 175 0
-171 -172 0
-171 -173 0
-171 -174 0
-171 -175 0
-172 -173 0
-172 -174 0
-172 -175 0
-173 -174 0
-173 -175 0
-174 -175 0
176 177 178 179 180 0
-176 -177 0
-176 -178 0
-176 -179 0
-176 -180 0
-177 -178 0
-177 -179 0
-177 -180 0
-178 -179 0
-178 -180 0
-179 -180 0
181 182 183 184 185 0
-181 -182 0
-181 -183 0
-181 -184 0
-181 -185 0
-182 -183 0
-182 -184 0
-182 -185 0
-183 -184 0
-183 -185 0
-184 -185 0
186 187 188 189 190 0
-186 -187 0
-186 -188 0
-186 -189 0
-186 -190 0
-187 -188 0
-187 -189 0
-187 -190 0
-188 -189 0
-188 -190 0
-189 -190 0
191 192 193 194 195 0
-191 -192 0
-191 -193 0
-191 -194 0
-191 -195 0
-192 -193 0
-192 -194 0
-192 -195 0
-193 -194 0
-193 -195 0
-194 -195 0
196 197 198 199 200 0
-196 -197 0
-196 -198 0
-196 -199 0
-196 -200 0
-197 -198 0
-197 -199 0
-197 -200 0
-198 -199 0
-198 -200 0
-199 -200 0
201 202 203 204 205 0
-201 -202 0
-201 -203 0
-201 -204 0
-201 -205 0
-202 -203 0
-202 -204 0
-202 -205 0
-203 -204 0
-203 -205 0
-204 -205 0
206 207 208 209 210 0
-206 -207 0
-206 -208 0
-206 -209 0
-206 -210 0
-207 -208 0
-207 -209 0
-207 -210 0
-208 -209 0
-208 -210 0
-209 -210 0
211 212 213 214 215 0
-211 -212 0
-211 -213 0
-211 -214 0
-211 -215 0
-212 -213 0
-212 -214 0
-212 -215 0
-213 -214 0
-213 -215 0
-214 -215 0
216 217 218 219 220 0
-216 -217 0
-216 -218 0
-216 -219 0
-216 -220 0
-217 -218 0
-217 -219 0
-217 -220 0
-218 -219 0
-218 -220 0
-219 -220 0
221 222 223 224 225 0
-221 -222 0
-221 -223 0
-221 -224 0
-221 -225 0
-222 -223 0
-222 -224 0
-222 -225 0
-223 -224 0
-223 -225 0
-224 -225 0
226 227 228 229 230 0
-226 -227 0
-226 -228 0
-226 -229 0
-226 -230 0
-227 -228 0
-227 -229 0
-227 -230 0
-228 -229 0
-228 -230 0
-229 -230 0
231 232 233 234 235 0
-231 -232 0
-231 -233 0
-231 -234 0
-231 -235 0
-232 -233 0
-232 -234 0
-232 -235 0
-233 -234 0
-233 -235 0
-234 -235 0
236 237 238 239 240 0
-236 -237 0
-236 -238 0
-236 -239 0
-236 -240 0
-237 -238 0
-237 -239 0
-237 -240 0
-238 -239 0
-238 -240 0
-239 -240 0
241 242 243 244 245 0
-241 -242 0
-241 -243 0
-241 -244 0
-241 -245 0
-242 -243 0
-242 -244 0
-242 -245 0
-243 -244 0
-243 -245 0
-244 -245 0
246 247 248 249 250 0
-246 -247 0
-246 -248 0
-246 -249 0
-246 -250 0
-247 -248 0
-247 -249 0
-247 -250 0
-248 -249 0
-248 -250 0
-249 -250 0
251 252 253 254 255 0
-251 -252 0
-251 -253 0
-251 -254 0
-251 -255 0
-252 -253 0
-252 -254 0
-252 -255 0
-253 -254 0
-253 -255 0
-254 -255 0
256 257 258 259 260 0
-256 -257 0
-256 -258 0
-256 -259 0
-256 -260 0
-257 -258 0
-257 -259 0
-257 -260 0
-258 -259 0
-258 -260 0
-259 -260 0
261 262 263 264 265 0
-261 -262 0
-261 -263 0
-261 -264 0
-261 -265 0
-262 -263 0
-262 -264 0
-262 -265 0
-263 -264 0
-263 -265 0
-264 -265 0
266 267 268 269 270 0
-266 -267 0
-266 -268 0
-266 -269 0
-266 -270 0
-267 -268 0
-267 -269 0
-267 -270 0
-268 -269 0
-268 -270 0
-269 -270 0
271 272 273 274 275 0
-271 -272 0
-271 -273 0
-271 -274 0
-271 -275 0
-272 -273 0
-272 -274 0
-272 -275 0
-273 -274 0
-273 -275 0
-274 -275 0
276 277 278 279 280 0
-276 -277 0
-276 -278 0
-276 -279 0
-276 -280 0
-277 -278 0
-277 -279 0
-277 -280 0
-278 -279 0
-278 -280 0
-279 -280 0
281 282 283 284 285 0
-281 -282 0
-281 -283 0
-281 -284 0
-281 -285 0
-282 -283 0
-282 -284 0
-282 -285 0
-283 -284 0
-283 -285 0
-284 -285 0
286 287 288 289 290 0
-286 -287 0
-286 -288 0
-286 -289 0
-286 -290 0
-287 -288 0
-287 -289 0
-287 -290 0
-288 -289 0
-288 -290 0
-289 -290 0
291 292 293 294 295 0
-291 -292 0
-291 -293 0
-291 -294 0
-291 -295 0
-292 -293 0
-292 -294 0
-292 -295 0
-293 -294 0
-293 -295 0
-294 -295 0
296 297 298 299 300 0
-296 -297 0
-296 -298 0
-296 -299 0
-296 -300 0
-297 -298 0
-297 -299 0
-297 -300 0
-298 -299 0
-298 -300 0
-299 -300 0
301 302 303 304 305 0
-301 -302 0
-301 -303 0
-301 -304 0
-301 -305 0
-302 -303 0
-302 -304 0
-302 -305 0
-303 -304 0
-303 -305 0
-304 -305 0
306 307 308 309 310 0
-306 -307 0
-306 -308 0
-306 -309 0
-306 -310 0
-307 -308 0
-307 -309 0
-307 -310 0
-308 -309 0
-308 -310 0
-309 -310 0
311 312 313 314 315 0
-311 -312 0
-311 -313 0
-311 -314 0
-311 -315 0
-312 -313 0
-312 -314 0
-312 -315 0
-313 -314 0
-313 -315 0
-314 -315 0
316 317 318 319 320 0
-316 -317 0
-316 -318 0
-316 -319 0
-316 -320 0
-317 -318 0
-317 -319 0
-317 -320 0
-318 -319 0
-318 -320 0
-319 -320 0
321 322 323 324 325 0
-321 -322 0
-321 -323 0
-321 -324 0
-321 -325 0
-322 -323 0
-322 -324 0
-322 -325 0
-323 -324 0
-323 -325 0
-324 -325 0
326 327 328 329 330 0
-326 -327 0
-326 -328 0
-326 -329 0
-326 -330 0
-327 -328 0
-327 -329 0
-327 -330 0
-328 -329 0
-328 -330 0
-329 -330 0
331 332 333 334 335 0
-331 -332 0
-331 -333 0
-331 -334 0
-331 -335 0
-332 -333 0
-332 -334 0
-332 -335 0
-333 -334 0
-333 -335 0
-334 -335 0
336 337 338 339 340 0
-336 -337 0
-336 -338 0
-336 -339 0
-336 -340 0
-337 -338 0
-337 -339 0
-337 -340 0
-338 -339 0
-338 -340 0
-339 -340 0
341 342 343 344 345 0
-341 -342 0
-341 -343 0
-341 -344 0
-341 -345 0
-342 -343 0
-342 -344 0
-342 -345 0
-343 -344 0
-343 -345 0
-344 -345 0
346 347 348 349 350 0
-346 -347 0
-346 -348 0
-346 -349 0
-346 -350 0
-347 -348 0
-347 -349 0
-347 -350 0
-348 -349 0
-348 -350 0
-349 -350 0
351 352 353 354 355 0
-351 -352 0
-351 -353 0
-351 -354 0
-351 -355 0
-352 -353 0
-352 -354 0
-352 -355 0
-353 -354 0
-353 -355 0
-354 -355 0
356 357 358 359 360 0
-356 -357 0
-356 -358 0
-356 -359 0
-356 -360 0
-357 -358 0
-357 -359 0
-357 -360 0
-358 -359 0
-358 -360 0
-359 -360 0
361 362 363 364 365 0
-361 -362 0
-361 -363 0
-361 -364 0
-361 -365 0
-362 -363 0
-362 -364 0
-362 -365 0
-363 -364 0
-363 -365 0
-364 -365 0
366 367 368 369 370 0
-366 -367 0
-366 -368 0
-366 -369 0
-366 -370 0
-367 -368 0
-367 -369 0
-367 -370 0
-368 -369 0
-368 -370 0
-369 -370 0
371 372 373 374 375 0
-371 -372 0
-371 -373 0
-371 -374 0
-371 -375 0
-372 -373 0
-372 -374 0
-372 -375 0
-373 -374 0
-373 -375 0
-374 -375 0
376 377 378 379 380 0
-376 -377 0
-376 -378 0
-376 -379 0
-376 -380 0
-377 -378 0
-377 -379 0
-377 -380 0
-378 -379 0
-378 -380 0
-379 -380 0
381 382 383 384 385 0
-381 -382 0
-381 -383 0
-381 -384 0
-381 -385 0
-382 -383 0
-382 -384 0
-382 -385 0
-383 -384 0
-383 -385 0
-384 -385 0
386 387 388 389 390 0
-386 -387 0
-386 -388 0
-386 -389 0
-386 -390 0
-387 -388 0
-387 -389 0
-387 -390 0
-388 -389 0
-388 -390 0
-389 -390 0
391 392 393 394 395 0
-391 -392 0
-391 -393 0
-391 -394 0
-391 -395 0
-392 -393 0
-392 -394 0
-392 -395 0
-393 -394 0
-393 -395 0
-394 -395 0
396 397 398 399 400 0
-396 -397 0
-396 -398 0
-396 -399 0
-396 -400 0
-397 -398 0
-397 -399 0
-397 -400 0
-398 -399 0
-398 -400 0
-399 -400 0
401 402 403 404 405 0
-401 -402 0
-401 -403 0
-401 -404 0
-401 -405 0
-402 -403 0
-402 -404 0
-402 -405 0
-403 -404 0
-403 -405 0
-404 -405 0
406 407 408 409 410 0
-406 -407 0
-406 -408 0
-406 -409 0
-406 -410 0
-407 -408 0
-407 -409 0
-407 -410 0
-408 -409 0
-408 -410 0
-409 -410 0
411 412 413 414 415 0
-411 -412 0
-411 -413 0
-411 -414 0
-411 -415 0
-412 -413 0
-412 -414 0
-412 -415 0
-413 -414 0
-413 -415 0
-414 -415 0
416 417 418 419 420 0
-416 -417 0
-416 -418 0
-416 -419 0
-416 -420 0
-417 -418 0
-417 -419 0
-417 -420 0
-418 -419 0
-418 -420 0
-419 -420 0
421 422 423 424 425 0
-421 -422 0
-421 -423 0
-421 -424 0
-421 -425 0
-422 -423 0
-422 -424 0
-422 -425 0
-423 -424 0
-423 -425 0
-424 -425 0
426 427 428 429 430 0
-426 -427 0
-426 -428 0
-426 -429 0
-426 -430 0
-427 -428 0
-427 -429 0
-427 -430 0
-428 -429 0
-428 -430 0
-429 -430 0
431 432 433 434 435 0
-431 -432 0
-431 -433 0
-431 -434 0
-431 -435 0
-432 -433 0
-432 -434 0
-432 -435 0
-433 -434 0
-433 -435 0
-434 -435 0
436 437 438 439 440 0
-436 -437 0
-436 -438 0
-436 -439 0
-436 -440 0
-437 -438 0
-437 -439 0
-437 -440 0
-438 -439 0
-438 -440 0
-439 -440 0
441 442 443 444 445 0
-441 -442 0
-441 -443 0
-441 -444 0
-441 -445 0
-442 -443 0
-442 -444 0
-442 -445 0
-443 -444 0
-443 -445 0
-444 -445 0
446 447 448 449 450 0
-446 -447 0
-446 -448 0
-446 -449 0
-446 -450 0
-447 -448 0
-447 -449 0
-447 -450 0
-448 -449 0
-448 -450 0
-449 -450 0
451 452 453 454 455 0
-451 -452 0
-451 -453 0
-451 -454 0
-451 -455 0
-452 -453 0
-452 -454 0
-452 -455 0
-453 -454 0
-453 -455 0
-454 -455 0
456 457 458 459 460 0
-456 -457 0
-456 -458 0
-456 -459 0
-456 -460 0
-457 -458 0
-457 -459 0
-457 -460 0
-458 -459 0
-458 -460 0
-459 -460 0
461 462 463 464 465 0
-461 -462 0
-461 -463 0
-461 -464 0
-461 -465 0
-462 -463 0
-462 -464 0
-462 -465 0
-463 -464 0
-463 -465 0
-464 -465 0
466 467 468 469 470 0
-466 -467 0
-466 -468 0
-466 -469 0
-466 -470 0
-467 -468 0
-467 -469 0
-467 -470 0
-468 -469 0
-468 -470 0
-469 -470 0
471 472 473 474 475 0
-471 -472 0
-471 -473 0
-471 -474 0
-471 -475 0
-472 -473 0
-472 -474 0
-472 -475 0
-473 -474 0
-473 -475 0
-474 -475 0
476 477 478 479 480 0
-476 -477 0
-476 -478 0
-476 -479 0
-476 -480 0
-477 -478 0
-477 -479 0
-477 -480 0
-478 -479 0
-478 -480 0
-479 -480 0
481 482 483 484 485 0
-481 -482 0
-481 -483 0
-481 -484 0
-481 -485 0
-482 -483 0
-482 -484 0
-482 -485 0
-483 -484 0
-483 -485 0
-484 -485 0
486 487 488 489 490 0
-486 -487 0
-486 -488 0
-486 -489 0
-486 -490 0
-487 -488 0
-487 -489 0
-487 -490 0
-488 -489 0
-488 -490 0
-489 -490 0
491 492 493 494 495 0
-491 -492 0
-491 -493 0
-491 -494 0
-491 -495 0
-492 -493 0
-492 -494 0
-492 -495 0
-493 -494 0
-493 -495 0
-494 -495 0
496 497 498 499 500 0
-496 -497 0
-496 -498 0
-496 -499 0
-496 -500 0
-497 -498 0
-497 -499 0
-497 -500 0
-498 -499 0
-498 -500 0
-499 -500 0
501 502 503 504 505 0
-501 -502 0
-501 -503 0
-501 -504 0
-501 -505 0
-502 -503 0
-502 -504 0
-502 -505 0
-503 -504 0
-503 -505 0
-504 -505 0
506 507 508 509 510 0
-506 -507 0
-506 -508 0
-506 -509 0
-506 -510 0
-507 -508 0
-507 -509 0
-507 -510 0
-508 -509 0
-508 -510 0
-509 -510 0
511 512 513 514 515 0
-511 -512 0
-511 -513 0
-511 -514 0
-511 -515 0
-512 -513 0
-512 -514 0
-512 -515 0
-513 -514 0
-513 -515 0
-514 -515 0
516 517 518 519 520 0
-516 -517 0
-516 -518 0
-516 -519 0
-516 -520 0
-517 -518 0
-517 -519 0
-517 -520 0
-518 -519 0
-518 -520 0
-519 -520 0
521 522 523 524 525 0
-521 -522 0
-521 -523 0
-521 -524 0
-521 -525 0
-522 -523 0
-522 -524 0
-522 -525 0
-523 -524 0
-523 -525 0
-524 -525 0
526 527 528 529 530 0
-526 -527 0
-526 -528 0
-526 -529 0
-526 -530 0
-527 -528 0
-527 -529 0
-527 -530 0
-528 -529 0
-528 -530 0
-529 -530 0
531 532 533 534 535 0
-531 -532 0
-531 -533 0
-531 -534 0
-531 -535 0
-532 -533 0
-532 -534 0
-532 -535 0
-533 -534 0
-533 -535 0
-534 -535 0
536 537 538 539 540 0
-536 -537 0
-536 -538 0
-536 -539 0
-536 -540 0
-537 -538 0
-537 -539 0
-537 -540 0
-538 -539 0
-538 -540 0
-539 -540 0
541 542 543 544 545 0
-541 -542 0
-541 -543 0
-541 -544 0
-541 -545 0
-542 -543 0
-542 -544 0
-542 -545 0
-543 -544 0
-543 -545 0
-544 -545 0
546 547 548 549 550 0
-546 -547 0
-546 -548 0
-546 -549 0
-546 -550 0
-547 -548 0
-547 -549 0
-547 -550 0
-548 -549 0
-548 -550 0
-549 -550 0
551 552 553 554 555 0
-551 -552 0
-551 -553 0
-551 -554 0
-551 -555 0
-552 -553 0
-552 -554 0
-552 -555 0
-553 -554 0
-553 -555 0
-554 -555 0
556 557 558 559 560 0
-556 -557 0
-556 -558 0
-556 -559 0
-556 -560 0
-557 -558 0
-557 -559 0
-557 -560 0
-558 -559 0
-558 -560 0
-559 -560 0
561 562 563 564 565 0
-561 -562 0
-561 -563 0
-561 -564 0
-561 -565 0
-562 -563 0
-562 -564 0
-562 -565 0
-563 -564 0
-563 -565 0
-564 -565 0
566 567 568 569 570 0
-566 -567 0
-566 -568 0
-566 -569 0
-566 -570 0
-567 -568 0
-567 -569 0
-567 -570 0
-568 -569 0
-568 -570 0
-569 -570 0
571 572 573 574 575 0
-571 -572 0
-571 -573 0
-571 -574 0
-571 -575 0
-572 -573 0
-572 -574 0
-572 -575 0
-573 -574 0
-573 -575 0
-574 -575 0
576 577 578 579 580 0
-576 -577 0
-576 -578 0
-576 -579 0
-576 -580 0
-577 -578 0
-577 -579 0
-577 -580 0
-578 -579 0
-578 -580 0
-579 -580 0
581 582 583 584 585 0
-581 -582 0
-581 -583 0
-581 -584 0
-581 -585 0
-582 -583 0
-582 -584 0
-582 -585 0
-583 -584 0
-583 -585 0
-584 -585 0
586 587 588 589 590 0
-586 -587 0
-586 -588 0
-586 -589 0
-586 -590 0
-587 -588 0
-587 -589 0
-587 -590 0
-588 -589 0
-588 -590 0
-589 -590 0
591 592 593 594 595 0
-591 -592 0
-591 -593 0
-591 -594 0
-591 -595 0
-592 -593 0
-592 -594 0
-592 -595 0
-593 -594 0
-593 -595 0
-594 -595 0
596 597 598 599 600 0
-596 -597 0
-596 -598 0
-596 -599 0
-596 -600 0
-597 -598 0
-597 -599 0
-597 -600 0
-598 -599 0
-598 -600 0
-599 -600 0
601 602 603 604 605 0
-601 -602 0
-601 -603 0
-601 -604 0
-601 -605 0
-602 -603 0
-602 -604 0
-602 -605 0
-603 -604 0
-603 -605 0
-604 -605 0
606 607 608 609 610 0
-606 -607 0
-606 -608 0
-606 -609 0
-606 -610 0
-607 -608 0
-607 -609 0
-607 -610 0
-608 -609 0
-608 -610 0
-609 -610 0
611 612 613 614 615 0
-611 -612 0
-611 -613 0
-611 -614 0
-611 -615 0
-612 -613 0
-612 -614 0
-612 -615 0
-613 -614 0
-613 -615 0
-614 -615 0
616 617 618 619 620 0
-616 -617 0
-616 -618 0
-616 -619 0
-616 -620 0
-617 -618 0
-617 -619 0
-617 -620 0
-618 -619 0
-618 -620 0
-619 -620 0
621 622 623 624 625 0
-621 -622 0
-621 -623 0
-621 -624 0
-621 -625 0
-622 -623 0
-622 -624 0
-622 -625 0
-623 -624 0
-623 -625 0
-624 -625 0
626 627 628 629 630 0
-626 -627 0
-626 -628 0
-626 -629 0
-626 -630 0
-627 -628 0
-627 -629 0
-627 -630 0
-628 -629 0
-628 -630 0
-629 -630 0
631 632 633 634 635 0
-631 -632 0
-631 -633 0
-631 -634 0
-631 -635 0
-632 -633 0
-632 -634 0
-632 -635 0
-633 -634 0
-633 -635 0
-634 -635 0
636 637 638 639 640 0
-636 -637 0
-636 -638 0
-636 -639 0
-636 -640 0
-637 -638 0
-637 -639 0
-637 -640 0
-638 -639 0
-638 -640 0
-639 -640 0
641 642 643 644 645 0
-641 -642 0
-641 -643 0
-641 -644 0
-641 -645 0
-642 -643 0
-642 -644 0
-642 -645 0
-643 -644 0
-643 -645 0
-644 -645 0
646 647 648 649 650 0
-646 -647 0
-646 -648 0
-646 -649 0
-646 -650 0
-647 -648 0
-647 -649 0
-647 -650 0
-648 -649 0
-648 -650 0
-649 -650 0
651 652 653 654 655 0
-651 -652 0
-651 -653 0
-651 -654 0
-651 -655 0
-652 -653 0
-652 -654 0
-652 -655 0
-653 -654 0
-653 -655 0
-654 -655 0
656 657 658 659 660 0
-656 -657 0
-656 -658 0
-656 -659 0
-656 -660 0
-657 -658 0
-657 -659 0
-657 -660 0
-658 -659 0
-658 -660 0
-659 -660 0
661 662 663 664 665 0
-661 -662 0
-661 -663 0
-661 -664 0
-661 -665 0
-662 -663 0
-662 -664 0
-662 -665 0
-663 -664 0
-663 -665 0
-664 -665 0
666 667 668 669 670 0
-666 -667 0
-666 -668 0
-666 -669 0
-666 -670 0
-667 -668 0
-667 -669 0
-667 -670 0
-668 -669 0
-668 -670 0
-669 -670 0
671 672 673 674 675 0
-671 -672 0
-671 -673 0
-671 -674 0
-671 -675 0
-672 -673 0
-672 -674 0
-672 -675 0
-673 -674 0
-673 -675 0
-674 -675 0
676 677 678 679 680 0
-676 -677 0
-676 -678 0
-676 -679 0
-676 -680 0
-677 -678 0
-677 -679 0
-677 -680 0
-678 -679 0
-678 -680 0
-679 -680 0
681 682 683 684 685 0
-681 -682 0
-681 -683 0
-681 -684 0
-681 -685 0
-682 -683 0
-682 -684 0
-682 -685 0
-683 -684 0
-683 -685 0
-684 -685 0
686 687 688 689 690 0
-686 -687 0
-686 -688 0
-686 -689 0
-686 -690 0
-687 -688 0
-687 -689 0
-687 -690 0
-688 -689 0
-688 -690 0
-689 -690 0
691 692 693 694 695 0
-691 -692 0
-691 -693 0
-691 -694 0
-691 -695 0
-692 -693 0
-692 -694 0
-692 -695 0
-693 -694 0
-693 -695 0
-694 -695 0
696 697 698 699 700 0
-696 -697 0
-696 -698 0
-696 -699 0
-696 -700 0
-697 -698 0
-697 -699 0
-697 -700 0
-698 -699 0
-698 -700 0
-699 -700 0
701 702 703 704 705 0
-701 -702 0
-701 -703 0
-701 -704 0
-701 -705 0
-702 -703 0
-702 -704 0
-702 -705 0
-703 -704 0
-703 -705 0
-704 -705 0
706 707 708 709 710 0
-706 -707 0
-706 -708 0
-706 -709 0
-706 -710 0
-707 -708 0
-707 -709 0
-707 -710 0
-708 -709 0
-708 -710 0
-709 -710 0
711 712 713 714 715 0
-711 -712 0
-711 -713 0
-711 -714 0
-711 -715 0
-712 -713 0
-712 -714 0
-712 -715 0
-713 -714 0
-713 -715 0
-714 -715 0
716 717 718 719 720 0
-716 -717 0
-716 -718 0
-716 -719 0
-716 -720 0
-717 -718 0
-717 -719 0
-717 -720 0
-718 -719 0
-718 -720 0
-719 -720 0
721 722 723 724 725 0
-721 -722 0
-721 -723 0
-721 -724 0
-721 -725 0
-722 -723 0
-722 -724 0
-722 -725 0
-723 -724 0
-723 -725 0
-724 -725 0
726 727 728 729 730 0
-726 -727 0
-726 -728 0
-726 -729 0
-726 -730 0
-727 -728 0
-727 -729 0
-727 -730 0
-728 -729 0
-728 -730 0
-729 -730 0
731 732 733 734 735 0
-731 -732 0
-731 -733 0
-731 -734 0
-731 -735 0
-732 -733 0
-732 -734 0
-732 -735 0
-733 -734 0
-733 -735 0
-734 -735 0
736 737 738 739 740 0
-736 -737 0
-736 -738 0
-736 -739 0
-736 -740 0
-737 -738 0
-737 -739 0
-737 -740 0
-738 -739 0
-738 -740 0
-739 -740 0
741 742 743 744 745 0
-741 -742 0
-741 -743 0
-741 -744 0
-741 -745 0
-742 -743 0
-742 -744 0
-742 -745 0
-743 -744 0
-743 -745 0
-744 -745 0
746 747 748 749 750 0
-746 -747 0
-746 -748 0
-746 -749 0
-746 -750 0
-747 -748 0
-747 -749 0
-747 -750 0
-748 -749 0
-748 -750 0
-749 -750 0
751 752 753 754 755 0
-751 -752 0
-751 -753 0
-751 -754 0
-751 -755 0
-752 -753 0
-752 -754 0
-752 -755 0
-753 -754 0
-753 -755 0
-754 -755 0
756 757 758 759 760 0
-756 -757 0
-756 -758 0
-756 -759 0
-756 -760 0
-757 -758 0
-757 -759 0
-757 -760 0
-758 -759 0
-758 -760 0
-759 -760 0
761 762 763 764 765 0
-761 -762 0
-761 -763 0
-761 -764 0
-761 -765 0
-762 -763 0
-762 -764 0
-762 -765 0
-763 -764 0
-763 -765 0
-764 -765 0
766 767 768 769 770 0
-766 -767 0
-766 -768 0
-766 -769 0
-766 -770 0
-767 -768 0
-767 -769 0
-767 -770 0
-768 -769 0
-768 -770 0
-769 -770 0
771 772 773 774 775 0
-771 -772 0
-771 -773 0
-771 -774 0
-771 -775 0
-772 -773 0
-772 -774 0
-772 -775 0
-773 -774 0
-773 -775 0
-774 -775 0
776 777 778 779 780 0
-776 -777 0
-776 -778 0
-776 -779 0
-776 -780 0
-777 -778 0
-777 -779 0
-777 -780 0
-778 -779 0
-778 -780 0
-779 -780 0
781 782 783 784 785 0
-781 -782 0
-781 -783 0
-781 -784 0
-781 -785 0
-782 -783 0
-782 -784 0
-782 -785 0
-783 -784 0
-783 -785 0
-784 -785 0
786 787 788 789 790 0
-786 -787 0
-786 -788 0
-786 -789 0
-786 -790 0
-787 -788 0
-787 -789 0
-787 -790 0
-788 -789 0
-788 -790 0
-789 -790 0
791 792 793 794 795 0
-791 -792 0
-791 -793 0
-791 -794 0
-791 -795 0
-792 -793 0
-792 -794 0
-792 -795 0
-793 -794 0
-793 -795 0
-794 -795 0
796 797 798 799 800 0
-796 -797 0
-796 -798 0
-796 -799 0
-796 -800 0
-797 -798 0
-797 -799 0
-797 -800 0
-798 -799 0
-798 -800 0
-799 -800 0
801 802 803 804 805 0
-801 -802 0
-801 -803 0
-801 -804 0
-801 -805 0
-802 -803 0
-802 -804 0
-802 -805 0
-803 -804 0
-803 -805 0
-804 -805 0
806 807 808 809 810 0
-806 -807 0
-806 -808 0
-806 -809 0
-806 -810 0
-807 -808 0
-807 -809 0
-807 -810 0
-808 -809 0
-808 -810 0
-809 -810 0
811 812 813 814 815 0
-811 -812 0
-811 -813 0
-811 -814 0
-811 -815 0
-812 -813 0
-812 -814 0
-812 -815 0
-813 -814 0
-813 -815 0
-814 -815 0
816 817 818 819 820 0
-816 -817 0
-816 -818 0
-816 -819 0
-816 -820 0
-817 -818 0
-817 -819 0
-817 -820 0
-818 -819 0
-818 -820 0
-819 -820 0
821 822 823 824 825 0
-821 -822 0
-821 -823 0
-821 -824 0
-821 -825 0
-822 -823 0
-822 -824 0
-822 -825 0
-823 -824 0
-823 -825 0
-824 -825 0
826 827 828 829 830 0
-826 -827 0
-826 -828 0
-826 -829 0
-826 -830 0
-827 -828 0
-827 -829 0
-827 -830 0
-828 -829 0
-828 -830 0
-829 -830 0
831 832 833 834 835 0
-831 -832 0
-831 -833 0
-831 -834 0
-831 -835 0
-832 -833 0
-832 -834 0
-832 -835 0
-833 -834 0
-833 -835 0
-834 -835 0
836 837 838 839 840 0
-836 -837 0
-836 -838 0
-836 -839 0
-836 -840 0
-837 -838 0
-837 -839 0
-837 -840 0
-838 -839 0
-838 -840 0
-839 -840 0
841 842 843 844 845 0
-841 -842 0
-841 -843 0
-841 -844 0
-841 -845 0
-842 -843 0
-842 -844 0
-842 -845 0
-843 -844 0
-843 -845 0
-844 -845 0
846 847 848 849 850 0
-846 -847 0
-846 -848 0
-846 -849 0
-846 -850 0
-847 -848 0
-847 -849 0
-847 -850 0
-848 -849 0
-848 -850 0
-849 -850 0
851 852 853 854 855 0
-851 -852 0
-851 -853 0
-851 -854 0
-851 -855 0
-852 -853 0
-852 -854 0
-852 -855 0
-853 -854 0
-853 -855 0
-854 -855 0
856 857 858 859 860 0
-856 -857 0
-856 -858 0
-856 -859 0
-856 -860 0
-857 -858 0
-857 -859 0
-857 -860 0
-858 -859 0
-858 -860 0
-859 -860 0
861 862 863 864 865 0
-861 -862 0
-861 -863 0
-861 -864 0
-861 -865 0
-862 -863 0
-862 -864 0
-862 -865 0
-863 -864 0
-863 -865 0
-864 -865 0
866 867 868 869 870 0
-866 -867 0
-866 -868 0
-866 -869 0
-866 -870 0
-867 -868 0
-867 -869 0
-867 -870 0
-868 -869 0
-868 -870 0
-869 -870 0
871 872 873 874 875 0
-871 -872 0
-871 -873 0
-871 -874 0
-871 -875 0
-872 -873 0
-872 -874 0
-872 -875 0
-873 -874 0
-873 -875 0
-874 -875 0
876 877 878 879 880 0
-876 -877 0
-876 -878 0
-876 -879 0
-876 -880 0
-877 -878 0
-877 -879 0
-877 -880 0
-878 -879 0
-878 -880 0
-879 -880 0
881 882 883 884 885 0
-881 -882 0
-881 -883 0
-881 -884 0
-881 -885 0
-882 -883 0
-882 -884 0
-882 -885 0
-883 -884 0
-883 -885 0
-884 -885 0
886 887 888 889 890 0
-886 -887 0
-886 -888 0
-886 -889 0
-886 -890 0
-887 -888 0
-887 -889 0
-887 -890 0
-888 -889 0
-888 -890 0
-889 -890 0
891 892 893 894 895 0
-891 -892 0
-891 -893 0
-891 -894 0
-891 -895 0
-892 -893 0
-892 -894 0
-892 -895 0
-893 -894 0
-893 -895 0
-894 -895 0
896 897 898 899 900 0
-896 -897 0
-896 -898 0
-896 -899 0
-896 -900 0
-897 -898 0
-897 -899 0
-897 -900 0
-898 -899 0
-898 -900 0
-899 -900 0
901 902 903 904 905 0
-901 -902 0
-901 -903 0
-901 -904 0
-901 -905 0
-902 -903 0
-902 -904 0
-902 -905 0
-903 -904 0
-903 -905 0
-904 -905 0
906 907 908 909 910 0
-906 -907 0
-906 -908 0
-906 -909 0
-906 -910 0
-907 -908 0
-907 -909 0
-907 -910 0
-908 -909 0
-908 -910 0
-909 -910 0
911 912 913 914 915 0
-911 -912 0
-911 -913 0
-911 -914 0
-911 -915 0
-912 -913 0
-912 -914 0
-912 -915 0
-913 -914 0
-913 -915 0
-914 -915 0
916 917 918 919 920 0
-916 -917 0
-916 -918 0
-916 -919 0
-916 -920 0
-917 -918 0
-917 -919 0
-917 -920 0
-918 -919 0
-918 -920 0
-919 -920 0
921 922 923 924 925 0
-921 -922 0
-921 -923 0
-921 -924 0
-921 -925 0
-922 -923 0
-922 -924 0
-922 -925 0
-923 -924 0
-923 -925 0
-924 -925 0
926 927 928 929 930 0
-926 -927 0
-926 -928 0
-926 -929 0
-926 -930 0
-927 -928 0
-927 -929 0
-927 -930 0
-928 -929 0
-928 -930 0
-929 -930 0
931 932 933 934 935 0
-931 -932 0
-931 -933 0
-931 -934 0
-931 -935 0
-932 -933 0
-932 -934 0
-932 -935 0
-933 -934 0
-933 -935 0
-934 -935 0
936 937 938 939 940 0
-936 -937 0
-936 -938 0
-936 -939 0
-936 -940 0
-937 -938 0
-937 -939 0
-937 -940 0
-938 -939 0
-938 -940 0
-939 -940 0
941 942 943 944 945 0
-941 -942 0
-941 -943 0
-941 -944 0
-941 -945 0
-942 -943 0
-942 -944 0
-942 -945 0
-943 -944 0
-943 -945 0
-944 -945 0
946 947 948 949 950 0
-946 -947 0
-946 -948 0
-946 -949 0
-946 -950 0
-947 -948 0
-947 -949 0
-947 -950 0
-948 -949 0
-948 -950 0
-949 -950 0
951 952 953 954 955 0
-951 -952 0
-951 -953 0
-951 -954 0
-951 -955 0
-952 -953 0
-952 -954 0
-952 -955 0
-953 -954 0
-953 -955 0
-954 -955 0
956 957 958 959 960 0
-956 -957 0
-956 -958 0
-956 -959 0
-956 -960 0
-957 -958 0
-957 -959 0
-957 -960 0
-958 -959 0
-958 -960 0
-959 -960 0
961 962 963 964 965 0
-961 -962 0
-961 -963 0
-961 -964 0
-961 -965 0
-962 -963 0
-962 -964 0
-962 -965 0
-963 -964 0
-963 -965 0
-964 -965 0
966 967 968 969 970 0
-966 -967 0
-966 -968 0
-966 -969 0
-966 -970 0
-967 -968 0
-967 -969 0
-967 -970 0
-968 -969 0
-968 -970 0
-969 -970 0
971 972 973 974 975 0
-971 -972 0
-971 -973 0
-971 -974 0
-971 -975 0
-972 -973 0
-972 -974 0
-972 -975 0
-973 -974 0
-973 -975 0
-974 -975 0
976 977 978 979 980 0
-976 -977 0
-976 -978 0
-976 -979 0
-976 -980 0
-977 -978 0
-977 -979 0
-977 -980 0
-978 -979 0
-978 -980 0
-979 -980 0
981 982 983 984 985 0
-981 -982 0
-981 -983 0
-981 -984 0
-981 -985 0
-982 -983 0
-982 -984 0
-982 -985 0
-983 -984 0
-983 -985 0
-984 -985 0
986 987 988 989 990 0
-986 -987 0
-986 -988 0
-986 -989 0
-986 -990 0
-987 -988 0
-987 -989 0
-987 -990 0
-988 -989 0
-988 -990 0
-989 -990 0
991 992 993 994 995 0
-991 -992 0
-991 -993 0
-991 -994 0
-991 -995 0
-992 -993 0
-992 -994 0
-992 -995 0
-993 -994 0
-993 -995 0
-994 -995 0
996 997 998 999 1000 0
-996 -997 0
-996 -998 0
-996 -999 0
-996 -1000 0
-997 -998 0
-997 -999 0
-997 -1000 0
-998 -999 0
-998 -1000 0
-999 -1000 0
1001 1002 1003 1004 1005 0
-1001 -1002 0
-1001 -1003 0
-1001 -1004 0
-1001 -1005 0
-1002 -1003 0
-1002 -1004 0
-1002 -1005 0
-1003 -1004 0
-1003 -1005 0
-1004 -1005 0
1006 1007 1008 1009 1010 0
-1006 -1007 0
-1006 -1008 0
-1006 -1009 0
-1006 -1010 0
-1007 -1008 0
-1007 -1009 0
-1007 -1010 0
-1008 -1009 0
-1008 -1010 0
-1009 -1010 0
1011 1012 1013 1014 1015 0
-1011 -1012 0
-1011 -1013 0
-1011 -1014 0
-1011 -1015 0
-1012 -1013 0
-1012 -1014 0
-1012 -1015 0
-1013 -1014 0
-1013 -1015 0
-1014 -1015 0
1016 1017 1018 1019 1020 0
-1016 -1017 0
-1016 -1018 0
-1016 -1019 0
-1016 -1020 0
-1017 -1018 0
-1017 -1019 0
-1017 -1020 0
-1018 -1019 0
-1018 -1020 0
-1019 -1020 0
1021 1022 1023 1024 1025 0
-1021 -1022 0
-1021 -1023 0
-1021 -1024 0
-1021 -1025 0
-1022 -1023 0
-1022 -1024 0
-1022 -1025 0
-1023 -1024 0
-1023 -1025 0
-1024 -1025 0
1026 1027 1028 1029 1030 0
-1026 -1027 0
-1026 -1028 0
-1026 -1029 0
-1026 -1030 0
-1027 -1028 0
-1027 -1029 0
-1027 -1030 0
-1028 -1029 0
-1028 -1030 0
-1029 -1030 0
1031 1032 1033 1034 1035 0
-1031 -1032 0
-1031 -1033 0
-1031 -1034 0
-1031 -1035 0
-1032 -1033 0
-1032 -1034 0
-1032 -1035 0
-1033 -1034 0
-1033 -1035 0
-1034 -1035 0
1036 1037 1038 1039 1040 0
-1036 -1037 0
-1036 -1038 0
-1036 -1039 0
-1036 -1040 0
-1037 -1038 0
-1037 -1039 0
-1037 -1040 0
-1038 -1039 0
-1038 -1040 0
-1039 -1040 0
1041 1042 1043 1044 1045 0
-1041 -1042 0
-1041 -1043 0
-1041 -1044 0
-1041 -1045 0
-1042 -1043 0
-1042 -1044 0
-1042 -1045 0
-1043 -1044 0
-1043 -1045 0
-1044 -1045 0
1046 1047 1048 1049 1050 0
-1046 -1047 0
-1046 -1048 0
-1046 -1049 0
-1046 -1050 0
-1047 -1048 0
-1047 -1049 0
-1047 -1050 0
-1048 -1049 0
-1048 -1050 0
-1049 -1050 0
1051 1052 1053 1054 1055 0
-1051 -1052 0
-1051 -1053 0
-1051 -1054 0
-1051 -1055 0
-1052 -1053 0
-1052 -1054 0
-1052 -1055 0
-1053 -1054 0
-1053 -1055 0
-1054 -1055 0
1056 1057 1058 1059 1060 0
-1056 -1057 0
-1056 -1058 0
-1056 -1059 0
-1056 -1060 0
-1057 -1058 0
-1057 -1059 0
-1057 -1060 0
-1058 -1059 0
-1058 -1060 0
-1059 -1060 0
1061 1062 1063 1064 1065 0
-1061 -1062 0
-1061 -1063 0
-1061 -1064 0
-1061 -1065 0
-1062 -1063 0
-1062 -1064 0
-1062 -1065 0
-1063 -1064 0
-1063 -1065 0
-1064 -1065 0
1066 1067 1068 1069 1070 0
-1066 -1067 0
-1066 -1068 0
-1066 -1069 0
-1066 -1070 0
-1067 -1068 0
-1067 -1069 0
-1067 -1070 0
-1068 -1069 0
-1068 -1070 0
-1069 -1070 0
1071 1072 1073 1074 1075 0
-1071 -1072 0
-1071 -1073 0
-1071 -1074 0
-1071 -1075 0
-1072 -1073 0
-1072 -1074 0
-1072 -1075 0
-1073 -1074 0
-1073 -1075 0
-1074 -1075 0
1076 1077 1078 1079 1080 0
-1076 -1077 0
-1076 -1078 0
-1076 -1079 0
-1076 -1080 0
-1077 -1078 0
-1077 -1079 0
-1077 -1080 0
-1078 -1079 0
-1078 -1080 0
-1079 -1080 0
1081 1082 1083 1084 1085 0
-1081 -1082 0
-1081 -1083 0
-1081 -1084 0
-1081 -1085 0
-1082 -1083 0
-1082 -1084 0
-1082 -1085 0
-1083 -1084 0
-1083 -1085 0
-1084 -1085 0
1086 1087 1088 1089 1090 0
-1086 -1087 0
-1086 -1088 0
-1086 -1089 0
-1086 -1090 0
-1087 -1088 0
-1087 -1089 0
-1087 -1090 0
-1088 -1089 0
-1088 -1090 0
-1089 -1090 0
1091 1092 1093 1094 1095 0
-1091 -1092 0
-1091 -1093 0
-1091 -1094 0
-1091 -1095 0
-1092 -1093 0
-1092 -1094 0
-1092 -1095 0
-1093 -1094 0
-1093 -1095 0
-1094 -1095 0
1096 1097 1098 1099 1100 0
-1096 -1097 0
-1096 -1098 0
-1096 -1099 0
-1096 -1100 0
-1097 -1098 0
-1097 -1099 0
-1097 -1100 0
-1098 -1099 0
-1098 -1100 0
-1099 -1100 0
1101 1102 1103 1104 1105 0
-1101 -1102 0
-1101 -1103 0
-1101 -1104 0
-1101 -1105 0
-1102 -1103 0
-1102 -1104 0
-1102 -1105 0
-1103 -1104 0
-1103 -1105 0
-1104 -1105 0
1106 1107 1108 1109 1110 0
-1106 -1107 0
-1106 -1108 0
-1106 -1109 0
-1106 -1110 0
-1107 -1108 0
-1107 -1109 0
-1107 -1110 0
-1108 -1109 0
-1108 -1110 0
-1109 -1110 0
1111 1112 1113 1114 1115 0
-1111 -1112 0
-1111 -1113 0
-1111 -1114 0
-1111 -1115 0
-1112 -1113 0
-1112 -1114 0
-1112 -1115 0
-1113 -1114 0
-1113 -1115 0
-1114 -1115 0
1116 1117 1118 1119 1120 0
-1116 -1117 0
-1116 -1118 0
-1116 -1119 0
-1116 -1120 0
-1117 -1118 0
-1117 -1119 0
-1117 -1120 0
-1118 -1119 0
-1118 -1120 0
-1119 -1120 0
1121 1122 1123 1124 1125 0
-1121 -1122 0
-1121 -1123 0
-1121 -1124 0
-1121 -1125 0
-1122 -1123 0
-1122 -1124 0
-1122 -1125 0
-1123 -1124 0
-1123 -1125 0
-1124 -1125 0
1126 1127 1128 1129 1130 0
-1126 -1127 0
-1126 -1128 0
-1126 -1129 0
-1126 -1130 0
-1127 -1128 0
-1127 -1129 0
-1127 -1130 0
-1128 -1129 0
-1128 -1130 0
-1129 -1130 0
1131 1132 1133 1134 1135 0
-1131 -1132 0
-1131 -1133 0
-1131 -1134 0
-1131 -1135 0
-1132 -1133 0
-1132 -1134 0
-1132 -1135 0
-1133 -1134 0
-1133 -1135 0
-1134 -1135 0
1136 1137 1138 1139 1140 0
-1136 -1137 0
-1136 -1138 0
-1136 -1139 0
-1136 -1140 0
-1137 -1138 0
-1137 -1139 0
-1137 -1140 0
-1138 -1139 0
-1138 -1140 0
-1139 -1140 0
1141 1142 1143 1144 1145 0
-1141 -1142 0
-1141 -1143 0
-1141 -1144 0
-1141 -1145 0
-1142 -1143 0
-1142 -1144 0
-1142 -1145 0
-1143 -1144 0
-1143 -1145 0
-1144 -1145 0
1146 1147 1148 1149 1150 0
-1146 -1147 0
-1146 -1148 0
-1146 -1149 0
-1146 -1150 0
-1147 -1148 0
-1147 -1149 0
-1147 -1150 0
-1148 -1149 0
-1148 -1150 0
-1149 -1150 0
1151 1152 1153 1154 1155 0
-1151 -1152 0
-1151 -1153 0
-1151 -1154 0
-1151 -1155 0
-1152 -1153 0
-1152 -1154 0
-1152 -1155 0
-1153 -1154 0
-1153 -1155 0
-1154 -1155 0
1156 1157 1158 1159 1160 0
-1156 -1157 0
-1156 -1158 0
-1156 -1159 0
-1156 -1160 0
-1157 -1158 0
-1157 -1159 0
-1157 -1160 0
-1158 -1159 0
-1158 -1160 0
-1159 -1160 0
1161 1162 1163 1164 1165 0
-1161 -1162 0
-1161 -1163 0
-1161 -1164 0
-1161 -1165 0
-1162 -1163 0
-1162 -1164 0
-1162 -1165 0
-1163 -1164 0
-1163 -1165 0
-1164 -1165 0
1166 1167 1168 1169 1170 0
-1166 -1167 0
-1166 -1168 0
-1166 -1169 0
-1166 -1170 0
-1167 -1168 0
-1167 -1169 0
-1167 -1170 0
-1168 -1169 0
-1168 -1170 0
-1169 -1170 0
1171 1172 1173 1174 1175 0
-1171 -1172 0
-1171 -1173 0
-1171 -1174 0
-1171 -1175 0
-1172 -1173 0
-1172 -1174 0
-1172 -1175 0
-1173 -1174 0
-1173 -1175 0
-1174 -1175 0
1176 1177 1178 1179 1180 0
-1176 -1177 0
-1176 -1178 0
-1176 -1179 0
-1176 -1180 0
-1177 -1178 0
-1177 -1179 0
-1177 -1180 0
-1178 -1179 0
-1178 -1180 0
-1179 -1180 0
1181 1182 1183 1184 1185 0
-1181 -1182 0
-1181 -1183 0
-1181 -1184 0
-1181 -1185 0
-1182 -1183 0
-1182 -1184 0
-1182 -1185 0
-1183 -1184 0
-1183 -1185 0
-1184 -1185 0
1186 1187 1188 1189 1190 0
-1186 -1187 0
-1186 -1188 0
-1186 -1189 0
-1186 -1190 0
-1187 -1188 0
-1187 -1189 0
-1187 -1190 0
-1188 -1189 0
-1188 -1190 0
-1189 -1190 0
1191 1192 1193 1194 1195 0
-1191 -1192 0
-1191 -1193 0
-1191 -1194 0
-1191 -1195 0
-1192 -1193 0
-1192 -1194 0
-1192 -1195 0
-1193 -1194 0
-1193 -1195 0
-1194 -1195 0
1196 1197 1198 1199 1200 0
-1196 -1197 0
-1196 -1198 0
-1196 -1199 0
-1196 -1200 0
-1197 -1198 0
-1197 -1199 0
-1197 -1200 0
-1198 -1199 0
-1198 -1200 0
-1199 -1200 0
1201 1202 1203 1204 1205 0
-1201 -1202 0
-1201 -1203 0
-1201 -1204 0
-1201 -1205 0
-1202 -1203 0
-1202 -1204 0
-1202 -1205 0
-1203 -1204 0
-1203 -1205 0
-1204 -1205 0
1206 1207 1208 1209 1210 0
-1206 -1207 0
-1206 -1208 0
-1206 -1209 0
-1206 -1210 0
-1207 -1208 0
-1207 -1209 0
-1207 -1210 0
-1208 -1209 0
-1208 -1210 0
-1209 -1210 0
1211 1212 1213 1214 1215 0
-1211 -1212 0
-1211 -1213 0
-1211 -1214 0
-1211 -1215 0
-1212 -1213 0
-1212 -1214 0
-1212 -1215 0
-1213 -1214 0
-1213 -1215 0
-1214 -1215 0
1216 1217 1218 1219 1220 0
-1216 -1217 0
-1216 -1218 0
-1216 -1219 0
-1216 -1220 0
-1217 -1218 0
-1217 -1219 0
-1217 -1220 0
-1218 -1219 0
-1218 -1220 0
-1219 -1220 0
1221 1222 1223 1224 1225 0
-1221 -1222 0
-1221 -1223 0
-1221 -1224 0
-1221 -1225 0
-1222 -1223 0
-1222 -1224 0
-1222 -1225 0
-1223 -1224 0
-1223 -1225 0
-1224 -1225 0
1226 1227 1228 1229 1230 0
-1226 -1227 0
-1226 -1228 0
-1226 -1229 0
-1226 -1230 0
-1227 -1228 0
-1227 -1229 0
-1227 -1230 0
-1228 -1229 0
-1228 -1230 0
-1229 -1230 0
1231 1232 1233 1234 1235 0
-1231 -1232 0
-1231 -1233 0
-1231 -1234 0
-1231 -1235 0
-1232 -1233 0
-1232 -1234 0
-1232 -1235 0
-1233 -1234 0
-1233 -1235 0
-1234 -1235 0
1236 1237 1238 1239 1240 0
-1236 -1237 0
-1236 -1238 0
-1236 -1239 0
-1236 -1240 0
-1237 -1238 0
-1237 -1239 0
-1237 -1240 0
-1238 -1239 0
-1238 -1240 0
-1239 -1240 0
1241 1242 1243 1244 1245 0
-1241 -1242 0
-1241 -1243 0
-1241 -1244 0
-1241 -1245 0
-1242 -1243 0
-1242 -1244 0
-1242 -1245 0
-1243 -1244 0
-1243 -1245 0
-1244 -1245 0
1246 1247 1248 1249 1250 0
-1246 -1247 0
-1246 -1248 0
-1246 -1249 0
-1246 -1250 0
-1247 -1248 0
-1247 -1249 0
-1247 -1250 0
-1248 -1249 0
-1248 -1250 0
-1249 -1250 0
1251 1252 1253 1254 1255 0
-1251 -1252 0
-1251 -1253 0
-1251 -1254 0
-1251 -1255 0
-1252 -1253 0
-1252 -1254 0
-1252 -1255 0
-1253 -1254 0
-1253 -1255 0
-1254 -1255 0
1256 1257 1258 1259 1260 0
-1256 -1257 0
-1256 -1258 0
-1256 -1259 0
-1256 -1260 0
-1257 -1258 0
-1257 -1259 0
-1257 -1260 0
-1258 -1259 0
-1258 -1260 0
-1259 -1260 0
1261 1262 1263 1264 1265 0
-1261 -1262 0
-1261 -1263 0
-1261 -1264 0
-1261 -1265 0
-1262 -1263 0
-1262 -1264 0
-1262 -1265 0
-1263 -1264 0
-1263 -1265 0
-1264 -1265 0
1266 1267 1268 1269 1270 0
-1266 -1267 0
-1266 -1268 0
-1266 -1269 0
-1266 -1270 0
-1267 -1268 0
-1267 -1269 0
-1267 -1270 0
-1268 -1269 0
-1268 -1270 0
-1269 -1270 0
1271 1272 1273 1274 1275 0
-1271 -1272 0
-1271 -1273 0
-1271 -1274 0
-1271 -1275 0
-1272 -1273 0
-1272 -1274 0
-1272 -1275 0
-1273 -1274 0
-1273 -1275 0
-1274 -1275 0
1276 1277 1278 1279 1280 0
-1276 -1277 0
-1276 -1278 0
-1276 -1279 0
-1276 -1280 0
-1277 -1278 0
-1277 -1279 0
-1277 -1280 0
-1278 -1279 0
-1278 -1280 0
-1279 -1280 0
1281 1282 1283 1284 1285 0
-1281 -1282 0
-1281 -1283 0
-1281 -1284 0
-1281 -1285 0
-1282 -1283 0
-1282 -1284 0
-1282 -1285 0
-1283 -1284 0
-1283 -1285 0
-1284 -1285 0
1286 1287 1288 1289 1290 0
-1286 -1287 0
-1286 -1288 0
-1286 -1289 0
-1286 -1290 0
-1287 -1288 0
-1287 -1289 0
-1287 -1290 0
-1288 -1289 0
-1288 -1290 0
-1289 -1290 0
1291 1292 1293 1294 1295 0
-1291 -1292 0
-1291 -1293 0
-1291 -1294 0
-1291 -1295 0
-1292 -1293 0
-1292 -1294 0
-1292 -1295 0
-1293 -1294 0
-1293 -1295 0
-1294 -1295 0
1296 1297 1298 1299 1300 0
-1296 -1297 0
-1296 -1298 0
-1296 -1299 0
-1296 -1300 0
-1297 -1298 0
-1297 -1299 0
-1297 -1300 0
-1298 -1299 0
-1298 -1300 0
-1299 -1300 0
1301 1302 1303 1304 1305 0
-1301 -1302 0
-1301 -1303 0
-1301 -1304 0
-1301 -1305 0
-1302 -1303 0
-1302 -1304 0
-1302 -1305 0
-1303 -1304 0
-1303 -1305 0
-1304 -1305 0
1306 1307 1308 1309 1310 0
-1306 -1307 0
-1306 -1308 0
-1306 -1309 0
-1306 -1310 0
-1307 -1308 0
-1307 -1309 0
-1307 -1310 0
-1308 -1309 0
-1308 -1310 0
-1309 -1310 0
1311 1312 1313 1314 1315 0
-1311 -1312 0
-1311 -1313 0
-1311 -1314 0
-1311 -1315 0
-1312 -1313 0
-1312 -1314 0
-1312 -1315 0
-1313 -1314 0
-1313 -1315 0
-1314 -1315 0
1316 1317 1318 1319 1320 0
-1316 -1317 0
-1316 -1318 0
-1316 -1319 0
-1316 -1320 0
-1317 -1318 0
-1317 -1319 0
-1317 -1320 0
-1318 -1319 0
-1318 -1320 0
-1319 -1320 0
1321 1322 1323 1324 1325 0
-1321 -1322 0
-1321 -1323 0
-1321 -1324 0
-1321 -1325 0
-1322 -1323 0
-1322 -1324 0
-1322 -1325 0
-1323 -1324 0
-1323 -1325 0
-1324 -1325 0
1326 1327 1328 1329 1330 0
-1326 -1327 0
-1326 -1328 0
-1326 -1329 0
-1326 -1330 0
-1327 -1328 0
-1327 -1329 0
-1327 -1330 0
-1328 -1329 0
-1328 -1330 0
-1329 -1330 0
1331 1332 1333 1334 1335 0
-1331 -1332 0
-1331 -1333 0
-1331 -1334 0
-1331 -1335 0
-1332 -1333 0
-1332 -1334 0
-1332 -1335 0
-1333 -1334 0
-1333 -1335 0
-1334 -1335 0
1336 1337 1338 1339 1340 0
-1336 -1337 0
-1336 -1338 0
-1336 -1339 0
-1336 -1340 0
-1337 -1338 0
-1337 -1339 0
-1337 -1340 0
-1338 -1339 0
-1338 -1340 0
-1339 -1340 0
1341 1342 1343 1344 1345 0
-1341 -1342 0
-1341 -1343 0
-1341 -1344 0
-1341 -1345 0
-1342 -1343 0
-1342 -1344 0
-1342 -1345 0
-1343 -1344 0
-1343 -1345 0
-1344 -1345 0
1346 1347 1348 1349 1350 0
-1346 -1347 0
-1346 -1348 0
-1346 -1349 0
-1346 -1350 0
-1347 -1348 0
-1347 -1349 0
-1347 -1350 0
-1348 -1349 0
-1348 -1350 0
-1349 -1350 0
1351 1352 1353 1354 1355 0
-1351 -1352 0
-1351 -1353 0
-1351 -1354 0
-1351 -1355 0
-1352 -1353 0
-1352 -1354 0
-1352 -1355 0
-1353 -1354 0
-1353 -1355 0
-1354 -1355 0
1356 1357 1358 1359 1360 0
-1356 -1357 0
-1356 -1358 0
-1356 -1359 0
-1356 -1360 0
-1357 -1358 0
-1357 -1359 0
-1357 -1360 0
-1358 -1359 0
-1358 -1360 0
-1359 -1360 0
1361 1362 1363 1364 1365 0
-1361 -1362 0
-1361 -1363 0
-1361 -1364 0
-1361 -1365 0
-1362 -1363 0
-1362 -1364 0
-1362 -1365 0
-1363 -1364 0
-1363 -1365 0
-1364 -1365 0
1366 1367 1368 1369 1370 0
-1366 -1367 0
-1366 -1368 0
-1366 -1369 0
-1366 -1370 0
-1367 -1368 0
-1367 -1369 0
-1367 -1370 0
-1368 -1369 0
-1368 -1370 0
-1369 -1370 0
1371 1372 1373 1374 1375 0
-1371 -1372 0
-1371 -1373 0
-1371 -1374 0
-1371 -1375 0
-1372 -1373 0
-1372 -1374 0
-1372 -1375 0
-1373 -1374 0
-1373 -1375 0
-1374 -1375 0
1376 1377 1378 1379 1380 0
-1376 -1377 0
-1376 -1378 0
-1376 -1379 0
-1376 -1380 0
-1377 -1378 0
-1377 -1379 0
-1377 -1380 0
-1378 -1379 0
-1378 -1380 0
-1379 -1380 0
1381 1382 1383 1384 1385 0
-1381 -1382 0
-1381 -1383 0
-1381 -1384 0
-1381 -1385 0
-1382 -1383 0
-1382 -1384 0
-1382 -1385 0
-1383 -1384 0
-1383 -1385 0
-1384 -1385 0
1386 1387 1388 1389 1390 0
-1386 -1387 0
-1386 -1388 0
-1386 -1389 0
-1386 -1390 0
-1387 -1388 0
-1387 -1389 0
-1387 -1390 0
-1388 -1389 0
-1388 -1390 0
-1389 -1390 0
1391 1392 1393 1394 1395 0
-1391 -1392 0
-1391 -1393 0
-1391 -1394 0
-1391 -1395 0
-1392 -1393 0
-1392 -1394 0
-1392 -1395 0
-1393 -1394 0
-1393 -1395 0
-1394 -1395 0
1396 1397 1398 1399 1400 0
-1396 -1397 0
-1396 -1398 0
-1396 -1399 0
-1396 -1400 0
-1397 -1398 0
-1397 -1399 0
-1397 -1400 0
-1398 -1399 0
-1398 -1400 0
-1399 -1400 0
1401 1402 1403 1404 1405 0
-1401 -1402 0
-1401 -1403 0
-1401 -1404 0
-1401 -1405 0
-1402 -1403 0
-1402 -1404 0
-1402 -1405 0
-1403 -1404 0
-1403 -1405 0
-1404 -1405 0
1406 1407 1408 1409 1410 0
-1406 -1407 0
-1406 -1408 0
-1406 -1409 0
-1406 -1410 0
-1407 -1408 0
-1407 -1409 0
-1407 -1410 0
-1408 -1409 0
-1408 -1410 0
-1409 -1410 0
1411 1412 1413 1414 1415 0
-1411 -1412 0
-1411 -1413 0
-1411 -1414 0
-1411 -1415 0
-1412 -1413 0
-1412 -1414 0
-1412 -1415 0
-1413 -1414 0
-1413 -1415 0
-1414 -1415 0
1416 1417 1418 1419 1420 0
-1416 -1417 0
-1416 -1418 0
-1416 -1419 0
-1416 -1420 0
-1417 -1418 0
-1417 -1419 0
-1417 -1420 0
-1418 -1419 0
-1418 -1420 0
-1419 -1420 0
1421 1422 1423 1424 1425 0
-1421 -1422 0
-1421 -1423 0
-1421 -1424 0
-1421 -1425 0
-1422 -1423 0
-1422 -1424 0
-1422 -1425 0
-1423 -1424 0
-1423 -1425 0
-1424 -1425 0
1426 1427 1428 1429 1430 0
-1426 -1427 0
-1426 -1428 0
-1426 -1429 0
-1426 -1430 0
-1427 -1428 0
-1427 -1429 0
-1427 -1430 0
-1428 -1429 0
-1428 -1430 0
-1429 -1430 0
1431 1432 1433 1434 1435 0
-1431 -1432 0
-1431 -1433 0
-1431 -1434 0
-1431 -1435 0
-1432 -1433 0
-1432 -1434 0
-1432 -1435 0
-1433 -1434 0
-1433 -1435 0
-1434 -1435 0
1436 1437 1438 1439 1440 0
-1436 -1437 0
-1436 -1438 0
-1436 -1439 0
-1436 -1440 0
-1437 -1438 0
-1437 -1439 0
-1437 -1440 0
-1438 -1439 0
-1438 -1440 0
-1439 -1440 0
1441 1442 1443 1444 1445 0
-1441 -1442 0
-1441 -1443 0
-1441 -1444 0
-1441 -1445 0
-1442 -1443 0
-1442 -1444 0
-1442 -1445 0
-1443 -1444 0
-1443 -1445 0
-1444 -1445 0
1446 1447 1448 1449 1450 0
-1446 -1447 0
-1446 -1448 0
-1446 -1449 0
-1446 -1450 0
-1447 -1448 0
-1447 -1449 0
-1447 -1450 0
-1448 -1449 0
-1448 -1450 0
-1449 -1450 0
1451 1452 1453 1454 1455 0
-1451 -1452 0
-1451 -1453 0
-1451 -1454 0
-1451 -1455 0
-1452 -1453 0
-1452 -1454 0
-1452 -1455 0
-1453 -1454 0
-1453 -1455 0
-1454 -1455 0
1456 1457 1458 1459 1460 0
-1456 -1457 0
-1456 -1458 0
-1456 -1459 0
-1456 -1460 0
-1457 -1458 0
-1457 -1459 0
-1457 -1460 0
-1458 -1459 0
-1458 -1460 0
-1459 -1460 0
1461 1462 1463 1464 1465 0
-1461 -1462 0
-1461 -1463 0
-1461 -1464 0
-1461 -1465 0
-1462 -1463 0
-1462 -1464 0
-1462 -1465 0
-1463 -1464 0
-1463 -1465 0
-1464 -1465 0
1466 1467 1468 1469 1470 0
-1466 -1467 0
-1466 -1468 0
-1466 -1469 0
-1466 -1470 0
-1467 -1468 0
-1467 -1469 0
-1467 -1470 0
-1468 -1469 0
-1468 -1470 0
-1469 -1470 0
1471 1472 1473 1474 1475 0
-1471 -1472 0
-1471 -1473 0
-1471 -1474 0
-1471 -1475 0
-1472 -1473 0
-1472 -1474 0
-1472 -1475 0
-1473 -1474 0
-1473 -1475 0
-1474 -1475 0
1476 1477 1478 1479 1480 0
-1476 -1477 0
-1476 -1478 0
-1476 -1479 0
-1476 -1480 0
-1477 -1478 0
-1477 -1479 0
-1477 -1480 0
-1478 -1479 0
-1478 -1480 0
-1479 -1480 0
1481 1482 1483 1484 1485 0
-1481 -1482 0
-1481 -1483 0
-1481 -1484 0
-1481 -1485 0
-1482 -1483 0
-1482 -1484 0
-1482 -1485 0
-1483 -1484 0
-1483 -1485 0
-1484 -1485 0
1486 1487 1488 1489 1490 0
-1486 -1487 0
-1486 -1488 0
-1486 -1489 0
-1486 -1490 0
-1487 -1488 0
-1487 -1489 0
-1487 -1490 0
-1488 -1489 0
-1488 -1490 0
-1489 -1490 0
1491 1492 1493 1494 1495 0
-1491 -1492 0
-1491 -1493 0
-1491 -1494 0
-1491 -1495 0
-1492 -1493 0
-1492 -1494 0
-1492 -1495 0
-1493 -1494 0
-1493 -1495 0
-1494 -1495 0
1496 1497 1498 1499 1500 0
-1496 -1497 0
-1496 -1498 0
-1496 -1499 0
-1496 -1500 0
-1497 -1498 0
-1497 -1499 0
-1497 -1500 0
-1498 -1499 0
-1498 -1500 0
-1499 -1500 0
1501 1502 1503 1504 1505 0
-1501 -1502 0
-1501 -1503 0
-1501 -1504 0
-1501 -1505 0
-1502 -1503 0
-1502 -1504 0
-1502 -1505 0
-1503 -1504 0
-1503 -1505 0
-1504 -1505 0
1506 1507 1508 1509 1510 0
-1506 -1507 0
-1506 -1508 0
-1506 -1509 0
-1506 -1510 0
-1507 -1508 0
-1507 -1509 0
-1507 -1510 0
-1508 -1509 0
-1508 -1510 0
-1509 -1510 0
1511 1512 1513 1514 1515 0
-1511 -1512 0
-1511 -1513 0
-1511 -1514 0
-1511 -1515 0
-1512 -1513 0
-1512 -1514 0
-1512 -1515 0
-1513 -1514 0
-1513 -1515 0
-1514 -1515 0
1516 1517 1518 1519 1520 0
-1516 -1517 0
-1516 -1518 0
-1516 -1519 0
-1516 -1520 0
-1517 -1518 0
-1517 -1519 0
-1517 -1520 0
-1518 -1519 0
-1518 -1520 0
-1519 -1520 0
1521 1522 1523 1524 1525 0
-1521 -1522 0
-1521 -1523 0
-1521 -1524 0
-1521 -1525 0
-1522 -1523 0
-1522 -1524 0
-1522 -1525 0
-1523 -1524 0
-1523 -1525 0
-1524 -1525 0
1526 1527 1528 1529 1530 0
-1526 -1527 0
-1526 -1528 0
-1526 -1529 0
-1526 -1530 0
-1527 -1528 0
-1527 -1529 0
-1527 -1530 0
-1528 -1529 0
-1528 -1530 0
-1529 -1530 0
1531 1532 1533 1534 1535 0
-1531 -1532 0
-1531 -1533 0
-1531 -1534 0
-1531 -1535 0
-1532 -1533 0
-1532 -1534 0
-1532 -1535 0
-1533 -1534 0
-1533 -1535 0
-1534 -1535 0
1536 1537 1538 1539 1540 0
-1536 -1537 0
-1536 -1538 0
-1536 -1539 0
-1536 -1540 0
-1537 -1538 0
-1537 -1539 0
-1537 -1540 0
-1538 -1539 0
-1538 -1540 0
-1539 -1540 0
1541 1542 1543 1544 1545 0
-1541 -1542 0
-1541 -1543 0
-1541 -1544 0
-1541 -1545 0
-1542 -1543 0
-1542 -1544 0
-1542 -1545 0
-1543 -1544 0
-1543 -1545 0
-1544 -1545 0
1546 1547 1548 1549 1550 0
-1546 -1547 0
-1546 -1548 0
-1546 -1549 0
-1546 -1550 0
-1547 -1548 0
-1547 -1549 0
-1547 -1550 0
-1548 -1549 0
-1548 -1550 0
-1549 -1550 0
1551 1552 1553 1554 1555 0
-1551 -1552 0
-1551 -1553 0
-1551 -1554 0
-1551 -1555 0
-1552 -1553 0
-1552 -1554 0
-1552 -1555 0
-1553 -1554 0
-1553 -1555 0
-1554 -1555 0
1556 1557 1558 1559 1560 0
-1556 -1557 0
-1556 -1558 0
-1556 -1559 0
-1556 -1560 0
-1557 -1558 0
-1557 -1559 0
-1557 -1560 0
-1558 -1559 0
-1558 -1560 0
-1559 -1560 0
1561 1562 1563 1564 1565 0
-1561 -1562 0
-1561 -1563 0
-1561 -1564 0
-1561 -1565 0
-1562 -1563 0
-1562 -1564 0
-1562 -1565 0
-1563 -1564 0
-1563 -1565 0
-1564 -1565 0
1566 1567 1568 1569 1570 0
-1566 -1567 0
-1566 -1568 0
-1566 -1569 0
-1566 -1570 0
-1567 -1568 0
-1567 -1569 0
-1567 -1570 0
-1568 -1569 0
-1568 -1570 0
-1569 -1570 0
1571 1572 1573 1574 1575 0
-1571 -1572 0
-1571 -1573 0
-1571 -1574 0
-1571 -1575 0
-1572 -1573 0
-1572 -1574 0
-1572 -1575 0
-1573 -1574 0
-1573 -1575 0
-1574 -1575 0
1576 1577 1578 1579 1580 0
-1576 -1577 0
-1576 -1578 0
-1576 -1579 0
-1576 -1580 0
-1577 -1578 0
-1577 -1579 0
-1577 -1580 0
-1578 -1579 0
-1578 -1580 0
-1579 -1580 0
1581 1582 1583 1584 1585 0
-1581 -1582 0
-1581 -1583 0
-1581 -1584 0
-1581 -1585 0
-1582 -1583 0
-1582 -1584 0
-1582 -1585 0
-1583 -1584 0
-1583 -1585 0
-1584 -1585 0
1586 1587 1588 1589 1590 0
-1586 -1587 0
-1586 -1588 0
-1586 -1589 0
-1586 -1590 0
-1587 -1588 0
-1587 -1589 0
-1587 -1590 0
-1588 -1589 0
-1588 -1590 0
-1589 -1590 0
1591 1592 1593 1594 1595 0
-1591 -1592 0
-1591 -1593 0
-1591 -1594 0
-1591 -1595 0
-1592 -1593 0
-1592 -1594 0
-1592 -1595 0
-1593 -1594 0
-1593 -1595 0
-1594 -1595 0
1596 1597 1598 1599 1600 0
-1596 -1597 0
-1596 -1598 0
-1596 -1599 0
-1596 -1600 0
-1597 -1598 0
-1597 -1599 0
-1597 -1600 0
-1598 -1599 0
-1598 -1600 0
-1599 -1600 0
1601 1602 1603 1604 1605 0
-1601 -1602 0
-1601 -1603 0
-1601 -1604 0
-1601 -1605 0
-1602 -1603 0
-1602 -1604 0
-1602 -1605 0
-1603 -1604 0
-1603 -1605 0
-1604 -1605 0
1606 1607 1608 1609 1610 0
-1606 -1607 0
-1606 -1608 0
-1606 -1609 0
-1606 -1610 0
-1607 -1608 0
-1607 -1609 0
-1607 -1610 0
-1608 -1609 0
-1608 -1610 0
-1609 -1610 0
1611 1612 1613 1614 1615 0
-1611 -1612 0
-1611 -1613 0
-1611 -1614 0
-1611 -1615 0
-1612 -1613 0
-1612 -1614 0
-1612 -1615 0
-1613 -1614 0
-1613 -1615 0
-1614 -1615 0
1616 1617 1618 1619 1620 0
-1616 -1617 0
-1616 -1618 0
-1616 -1619 0
-1616 -1620 0
-1617 -1618 0
-1617 -1619 0
-1617 -1620 0
-1618 -1619 0
-1618 -1620 0
-1619 -1620 0
1621 1622 1623 1624 1625 0
-1621 -1622 0
-1621 -1623 0
-1621 -1624 0
-1621 -1625 0
-1622 -1623 0
-1622 -1624 0
-1622 -1625 0
-1623 -1624 0
-1623 -1625 0
-1624 -1625 0
1626 1627 1628 1629 1630 0
-1626 -1627 0
-1626 -1628 0
-1626 -1629 0
-1626 -1630 0
-1627 -1628 0
-1627 -1629 0
-1627 -1630 0
-1628 -1629 0
-1628 -1630 0
-1629 -1630 0
1631 1632 1633 1634 1635 0
-1631 -1632 0
-1631 -1633 0
-1631 -1634 0
-1631 -1635 0
-1632 -1633 0
-1632 -1634 0
-1632 -1635 0
-1633 -1634 0
-1633 -1635 0
-1634 -1635 0
1636 1637 1638 1639 1640 0
-1636 -1637 0
-1636 -1638 0
-1636 -1639 0
-1636 -1640 0
-1637 -1638 0
-1637 -1639 0
-1637 -1640 0
-1638 -1639 0
-1638 -1640 0
-1639 -1640 0
1641 1642 1643 1644 1645 0
-1641 -1642 0
-1641 -1643 0
-1641 -1644 0
-1641 -1645 0
-1642 -1643 0
-1642 -1644 0
-1642 -1645 0
-1643 -1644 0
-1643 -1645 0
-1644 -1645 0
1646 1647 1648 1649 1650 0
-1646 -1647 0
-1646 -1648 0
-1646 -1649 0
-1646 -1650 0
-1647 -1648 0
-1647 -1649 0
-1647 -1650 0
-1648 -1649 0
-1648 -1650 0
-1649 -1650 0
1651 1652 1653 1654 1655 0
-1651 -1652 0
-1651 -1653 0
-1651 -1654 0
-1651 -1655 0
-1652 -1653 0
-1652 -1654 0
-1652 -1655 0
-1653 -1654 0
-1653 -1655 0
-1654 -1655 0
1656 1657 1658 1659 1660 0
-1656 -1657 0
-1656 -1658 0
-1656 -1659 0
-1656 -1660 0
-1657 -1658 0
-1657 -1659 0
-1657 -1660 0
-1658 -1659 0
-1658 -1660 0
-1659 -1660 0
1661 1662 1663 1664 1665 0
-1661 -1662 0
-1661 -1663 0
-1661 -1664 0
-1661 -1665 0
-1662 -1663 0
-1662 -1664 0
-1662 -1665 0
-1663 -1664 0
-1663 -1665 0
-1664 -1665 0
1666 1667 1668 1669 1670 0
-1666 -1667 0
-1666 -1668 0
-1666 -1669 0
-1666 -1670 0
-1667 -1668 0
-1667 -1669 0
-1667 -1670 0
-1668 -1669 0
-1668 -1670 0
-1669 -1670 0
1671 1672 1673 1674 1675 0
-1671 -1672 0
-1671 -1673 0
-1671 -1674 0
-1671 -1675 0
-1672 -1673 0
-1672 -1674 0
-1672 -1675 0
-1673 -1674 0
-1673 -1675 0
-1674 -1675 0
1676 1677 1678 1679 1680 0
-1676 -1677 0
-1676 -1678 0
-1676 -1679 0
-1676 -1680 0
-1677 -1678 0
-1677 -1679 0
-1677 -1680 0
-1678 -1679 0
-1678 -1680 0
-1679 -1680 0
1681 1682 1683 1684 1685 0
-1681 -1682 0
-1681 -1683 0
-1681 -1684 0
-1681 -1685 0
-1682 -1683 0
-1682 -1684 0
-1682 -1685 0
-1683 -1684 0
-1683 -1685 0
-1684 -1685 0
1686 1687 1688 1689 1690 0
-1686 -1687 0
-1686 -1688 0
-1686 -1689 0
-1686 -1690 0
-1687 -1688 0
-1687 -1689 0
-1687 -1690 0
-1688 -1689 0
-1688 -1690 0
-1689 -1690 0
1691 1692 1693 1694 1695 0
-1691 -1692 0
-1691 -1693 0
-1691 -1694 0
-1691 -1695 0
-1692 -1693 0
-1692 -1694 0
-1692 -1695 0
-1693 -1694 0
-1693 -1695 0
-1694 -1695 0
1696 1697 1698 1699 1700 0
-1696 -1697 0
-1696 -1698 0
-1696 -1699 0
-1696 -1700 0
-1697 -1698 0
-1697 -1699 0
-1697 -1700 0
-1698 -1699 0
-1698 -1700 0
-1699 -1700 0
1701 1702 1703 1704 1705 0
-1701 -1702 0
-1701 -1703 0
-1701 -1704 0
-1701 -1705 0
-1702 -1703 0
-1702 -1704 0
-1702 -1705 0
-1703 -1704 0
-1703 -1705 0
-1704 -1705 0
1706 1707 1708 1709 1710 0
-1706 -1707 0
-1706 -1708 0
-1706 -1709 0
-1706 -1710 0
-1707 -1708 0
-1707 -1709 0
-1707 -1710 0
-1708 -1709 0
-1708 -1710 0
-1709 -1710 0
1711 1712 1713 1714 1715 0
-1711 -1712 0
-1711 -1713 0
-1711 -1714 0
-1711 -1715 0
-1712 -1713 0
-1712 -1714 0
-1712 -1715 0
-1713 -1714 0
-1713 -1715 0
-1714 -1715 0
1716 1717 1718 1719 1720 0
-1716 -1717 0
-1716 -1718 0
-1716 -1719 0
-1716 -1720 0
-1717 -1718 0
-1717 -1719 0
-1717 -1720 0
-1718 -1719 0
-1718 -1720 0
-1719 -1720 0
1721 1722 1723 1724 1725 0
-1721 -1722 0
-1721 -1723 0
-1721 -1724 0
-1721 -1725 0
-1722 -1723 0
-1722 -1724 0
-1722 -1725 0
-1723 -1724 0
-1723 -1725 0
-1724 -1725 0
1726 1727 1728 1729 1730 0
-1726 -1727 0
-1726 -1728 0
-1726 -1729 0
-1726 -1730 0
-1727 -1728 0
-1727 -1729 0
-1727 -1730 0
-1728 -1729 0
-1728 -1730 0
-1729 -1730 0
1731 1732 1733 1734 1735 0
-1731 -1732 0
-1731 -1733 0
-1731 -1734 0
-1731 -1735 0
-1732 -1733 0
-1732 -1734 0
-1732 -1735 0
-1733 -1734 0
-1733 -1735 0
-1734 -1735 0
1736 1737 1738 1739 1740 0
-1736 -1737 0
-1736 -1738 0
-1736 -1739 0
-1736 -1740 0
-1737 -1738 0
-1737 -1739 0
-1737 -1740 0
-1738 -1739 0
-1738 -1740 0
-1739 -1740 0
1741 1742 1743 1744 1745 0
-1741 -1742 0
-1741 -1743 0
-1741 -1744 0
-1741 -1745 0
-1742 -1743 0
-1742 -1744 0
-1742 -1745 0
-1743 -1744 0
-1743 -1745 0
-1744 -1745 0
1746 1747 1748 1749 1750 0
-1746 -1747 0
-1746 -1748 0
-1746 -1749 0
-1746 -1750 0
-1747 -1748 0
-1747 -1749 0
-1747 -1750 0
-1748 -1749 0
-1748 -1750 0
-1749 -1750 0
1751 1752 1753 1754 1755 0
-1751 -1752 0
-1751 -1753 0
-1751 -1754 0
-1751 -1755 0
-1752 -1753 0
-1752 -1754 0
-1752 -1755 0
-1753 -1754 0
-1753 -1755 0
-1754 -1755 0
1756 1757 1758 1759 1760 0
-1756 -1757 0
-1756 -1758 0
-1756 -1759 0
-1756 -1760 0
-1757 -1758 0
-1757 -1759 0
-1757 -1760 0
-1758 -1759 0
-1758 -1760 0
-1759 -1760 0
1761 1762 1763 1764 1765 0
-1761 -1762 0
-1761 -1763 0
-1761 -1764 0
-1761 -1765 0
-1762 -1763 0
-1762 -1764 0
-1762 -1765 0
-1763 -1764 0
-1763 -1765 0
-1764 -1765 0
1766 1767 1768 1769 1770 0
-1766 -1767 0
-1766 -1768 0
-1766 -1769 0
-1766 -1770 0
-1767 -1768 0
-1767 -1769 0
-1767 -1770 0
-1768 -1769 0
-1768 -1770 0
-1769 -1770 0
1771 1772 1773 1774 1775 0
-1771 -1772 0
-1771 -1773 0
-1771 -1774 0
-1771 -1775 0
-1772 -1773 0
-1772 -1774 0
-1772 -1775 0
-1773 -1774 0
-1773 -1775 0
-1774 -1775 0
1776 1777 1778 1779 1780 0
-1776 -1777 0
-1776 -1778 0
-1776 -1779 0
-1776 -1780 0
-1777 -1778 0
-1777 -1779 0
-1777 -1780 0
-1778 -1779 0
-1778 -1780 0
-1779 -1780 0
1781 1782 1783 1784 1785 0
-1781 -1782 0
-1781 -1783 0
-1781 -1784 0
-1781 -1785 0
-1782 -1783 0
-1782 -1784 0
-1782 -1785 0
-1783 -1784 0
-1783 -1785 0
-1784 -1785 0
1786 1787 1788 1789 1790 0
-1786 -1787 0
-1786 -1788 0
-1786 -1789 0
-1786 -1790 0
-1787 -1788 0
-1787 -1789 0
-1787 -1790 0
-1788 -1789 0
-1788 -1790 0
-1789 -1790 0
1791 1792 1793 1794 1795 0
-1791 -1792 0
-1791 -1793 0
-1791 -1794 0
-1791 -1795 0
-1792 -1793 0
-1792 -1794 0
-1792 -1795 0
-1793 -1794 0
-1793 -1795 0
-1794 -1795 0
1796 1797 1798 1799 1800 0
-1796 -1797 0
-1796 -1798 0
-1796 -1799 0
-1796 -1800 0
-1797 -1798 0
-1797 -1799 0
-1797 -1800 0
-1798 -1799 0
-1798 -1800 0
-1799 -1800 0
1801 1802 1803 1804 1805 0
-1801 -1802 0
-1801 -1803 0
-1801 -1804 0
-1801 -1805 0
-1802 -1803 0
-1802 -1804 0
-1802 -1805 0
-1803 -1804 0
-1803 -1805 0
-1804 -1805 0
1806 1807 1808 1809 1810 0
-1806 -1807 0
-1806 -1808 0
-1806 -1809 0
-1806 -1810 0
-1807 -1808 0
-1807 -1809 0
-1807 -1810 0
-1808 -1809 0
-1808 -1810 0
-1809 -1810 0
1811 1812 1813 1814 1815 0
-1811 -1812 0
-1811 -1813 0
-1811 -1814 0
-1811 -1815 0
-1812 -1813 0
-1812 -1814 0
-1812 -1815 0
-1813 -1814 0
-1813 -1815 0
-1814 -1815 0
1816 1817 1818 1819 1820 0
-1816 -1817 0
-1816 -1818 0
-1816 -1819 0
-1816 -1820 0
-1817 -1818 0
-1817 -1819 0
-1817 -1820 0
-1818 -1819 0
-1818 -1820 0
-1819 -1820 0
1821 1822 1823 1824 1825 0
-1821 -1822 0
-1821 -1823 0
-1821 -1824 0
-1821 -1825 0
-1822 -1823 0
-1822 -1824 0
-1822 -1825 0
-1823 -1824 0
-1823 -1825 0
-1824 -1825 0
1826 1827 1828 1829 1830 0
-1826 -1827 0
-1826 -1828 0
-1826 -1829 0
-1826 -1830 0
-1827 -1828 0
-1827 -1829 0
-1827 -1830 0
-1828 -1829 0
-1828 -1830 0
-1829 -1830 0
1831 1832 1833 1834 1835 0
-1831 -1832 0
-1831 -1833 0
-1831 -1834 0
-1831 -1835 0
-1832 -1833 0
-1832 -1834 0
-1832 -1835 0
-1833 -1834 0
-1833 -1835 0
-1834 -1835 0
1836 1837 1838 1839 1840 0
-1836 -1837 0
-1836 -1838 0
-1836 -1839 0
-1836 -1840 0
-1837 -1838 0
-1837 -1839 0
-1837 -1840 0
-1838 -1839 0
-1838 -1840 0
-1839 -1840 0
1841 1842 1843 1844 1845 0
-1841 -1842 0
-1841 -1843 0
-1841 -1844 0
-1841 -1845 0
-1842 -1843 0
-1842 -1844 0
-1842 -1845 0
-1843 -1844 0
-1843 -1845 0
-1844 -1845 0
1846 1847 1848 1849 1850 0
-1846 -1847 0
-1846 -1848 0
-1846 -1849 0
-1846 -1850 0
-1847 -1848 0
-1847 -1849 0
-1847 -1850 0
-1848 -1849 0
-1848 -1850 0
-1849 -1850 0
1851 1852 1853 1854 1855 0
-1851 -1852 0
-1851 -1853 0
-1851 -1854 0
-1851 -1855 0
-1852 -1853 0
-1852 -1854 0
-1852 -1855 0
-1853 -1854 0
-1853 -1855 0
-1854 -1855 0
1856 1857 1858 1859 1860 0
-1856 -1857 0
-1856 -1858 0
-1856 -1859 0
-1856 -1860 0
-1857 -1858 0
-1857 -1859 0
-1857 -1860 0
-1858 -1859 0
-1858 -1860 0
-1859 -1860 0
1861 1862 1863 1864 1865 0
-1861 -1862 0
-1861 -1863 0
-1861 -1864 0
-1861 -1865 0
-1862 -1863 0
-1862 -1864 0
-1862 -1865 0
-1863 -1864 0
-1863 -1865 0
-1864 -1865 0
1866 1867 1868 1869 1870 0
-1866 -1867 0
-1866 -1868 0
-1866 -1869 0
-1866 -1870 0
-1867 -1868 0
-1867 -1869 0
-1867 -1870 0
-1868 -1869 0
-1868 -1870 0
-1869 -1870 0
1871 1872 1873 1874 1875 0
-1871 -1872 0
-1871 -1873 0
-1871 -1874 0
-1871 -1875 0
-1872 -1873 0
-1872 -1874 0
-1872 -1875 0
-1873 -1874 0
-1873 -1875 0
-1874 -1875 0
1876 1877 1878 1879 1880 0
-1876 -1877 0
-1876 -1878 0
-1876 -1879 0
-1876 -1880 0
-1877 -1878 0
-1877 -1879 0
-1877 -1880 0
-1878 -1879 0
-1878 -1880 0
-1879 -1880 0
1881 1882 1883 1884 1885 0
-1881 -1882 0
-1881 -1883 0
-1881 -1884 0
-1881 -1885 0
-1882 -1883 0
-1882 -1884 0
-1882 -1885 0
-1883 -1884 0
-1883 -1885 0
-1884 -1885 0
1886 1887 1888 1889 1890 0
-1886 -1887 0
-1886 -1888 0
-1886 -1889 0
-1886 -1890 0
-1887 -1888 0
-1887 -1889 0
-1887 -1890 0
-1888 -1889 0
-1888 -1890 0
-1889 -1890 0
1891 1892 1893 1894 1895 0
-1891 -1892 0
-1891 -1893 0
-1891 -1894 0
-1891 -1895 0
-1892 -1893 0
-1892 -1894 0
-1892 -1895 0
-1893 -1894 0
-1893 -1895 0
-1894 -1895 0
1896 1897 1898 1899 1900 0
-1896 -1897 0
-1896 -1898 0
-1896 -1899 0
-1896 -1900 0
-1897 -1898 0
-1897 -1899 0
-1897 -1900 0
-1898 -1899 0
-1898 -1900 0
-1899 -1900 0
1901 1902 1903 1904 1905 0
-1901 -1902 0
-1901 -1903 0
-1901 -1904 0
-1901 -1905 0
-1902 -1903 0
-1902 -1904 0
-1902 -1905 0
-1903 -1904 0
-1903 -1905 0
-1904 -1905 0
1906 1907 1908 1909 1910 0
-1906 -1907 0
-1906 -1908 0
-1906 -1909 0
-1906 -1910 0
-1907 -1908 0
-1907 -1909 0
-1907 -1910 0
-1908 -1909 0
-1908 -1910 0
-1909 -1910 0
1911 1912 1913 1914 1915 0
-1911 -1912 0
-1911 -1913 0
-1911 -1914 0
-1911 -1915 0
-1912 -1913 0
-1912 -1914 0
-1912 -1915 0
-1913 -1914 0
-1913 -1915 0
-1914 -1915 0
1916 1917 1918 1919 1920 0
-1916 -1917 0
-1916 -1918 0
-1916 -1919 0
-1916 -1920 0
-1917 -1918 0
-1917 -1919 0
-1917 -1920 0
-1918 -1919 0
-1918 -1920 0
-1919 -1920 0
1921 1922 1923 1924 1925 0
-1921 -1922 0
-1921 -1923 0
-1921 -1924 0
-1921 -1925 0
-1922 -1923 0
-1922 -1924 0
-1922 -1925 0
-1923 -1924 0
-1923 -1925 0
-1924 -1925 0
1926 1927 1928 1929 1930 0
-1926 -1927 0
-1926 -1928 0
-1926 -1929 0
-1926 -1930 0
-1927 -1928 0
-1927 -1929 0
-1927 -1930 0
-1928 -1929 0
-1928 -1930 0
-1929 -1930 0
1931 1932 1933 1934 1935 0
-1931 -1932 0
-1931 -1933 0
-1931 -1934 0
-1931 -1935 0
-1932 -1933 0
-1932 -1934 0
-1932 -1935 0
-1933 -1934 0
-1933 -1935 0
-1934 -1935 0
1936 1937 1938 1939 1940 0
-1936 -1937 0
-1936 -1938 0
-1936 -1939 0
-1936 -1940 0
-1937 -1938 0
-1937 -1939 0
-1937 -1940 0
-1938 -1939 0
-1938 -1940 0
-1939 -1940 0
1941 1942 1943 1944 1945 0
-1941 -1942 0
-1941 -1943 0
-1941 -1944 0
-1941 -1945 0
-1942 -1943 0
-1942 -1944 0
-1942 -1945 0
-1943 -1944 0
-1943 -1945 0
-1944 -1945 0
1946 1947 1948 1949 1950 0
-1946 -1947 0
-1946 -1948 0
-1946 -1949 0
-1946 -1950 0
-1947 -1948 0
-1947 -1949 0
-1947 -1950 0
-1948 -1949 0
-1948 -1950 0
-1949 -1950 0
1951 1952 1953 1954 1955 0
-1951 -1952 0
-1951 -1953 0
-1951 -1954 0
-1951 -1955 0
-1952 -1953 0
-1952 -1954 0
-1952 -1955 0
-1953 -1954 0
-1953 -1955 0
-1954 -1955 0
1956 1957 1958 1959 1960 0
-1956 -1957 0
-1956 -1958 0
-1956 -1959 0
-1956 -1960 0
-1957 -1958 0
-1957 -1959 0
-1957 -1960 0
-1958 -1959 0
-1958 -1960 0
-1959 -1960 0
1961 1962 1963 1964 1965 0
-1961 -1962 0
-1961 -1963 0
-1961 -1964 0
-1961 -1965 0
-1962 -1963 0
-1962 -1964 0
-1962 -1965 0
-1963 -1964 0
-1963 -1965 0
-1964 -1965 0
1966 1967 1968 1969 1970 0
-1966 -1967 0
-1966 -1968 0
-1966 -1969 0
-1966 -1970 0
-1967 -1968 0
-1967 -1969 0
-1967 -1970 0
-1968 -1969 0
-1968 -1970 0
-1969 -1970 0
1971 1972 1973 1974 1975 0
-1971 -1972 0
-1971 -1973 0
-1971 -1974 0
-1971 -1975 0
-1972 -1973 0
-1972 -1974 0
-1972 -1975 0
-1973 -1974 0
-1973 -1975 0
-1974 -1975 0
1976 1977 1978 1979 1980 0
-1976 -1977 0
-1976 -1978 0
-1976 -1979 0
-1976 -1980 0
-1977 -1978 0
-1977 -1979 0
-1977 -1980 0
-1978 -1979 0
-1978 -1980 0
-1979 -1980 0
1981 1982 1983 1984 1985 0
-1981 -1982 0
-1981 -1983 0
-1981 -1984 0
-1981 -1985 0
-1982 -1983 0
-1982 -1984 0
-1982 -1985 0
-1983 -1984 0
-1983 -1985 0
-1984 -1985 0
1986 1987 1988 1989 1990 0
-1986 -1987 0
-1986 -1988 0
-1986 -1989 0
-1986 -1990 0
-1987 -1988 0
-1987 -1989 0
-1987 -1990 0
-1988 -1989 0
-1988 -1990 0
-1989 -1990 0
1991 1992 1993 1994 1995 0
-1991 -1992 0
-1991 -1993 0
-1991 -1994 0
-1991 -1995 0
-1992 -1993 0
-1992 -1994 0
-1992 -1995 0
-1993 -1994 0
-1993 -1995 0
-1994 -1995 0
1996 1997 1998 1999 2000 0
-1996 -1997 0
-1996 -1998 0
-1996 -1999 0
-1996 -2000 0
-1997 -1998 0
-1997 -1999 0
-1997 -2000 0
-1998 -1999 0
-1998 -2000 0
-1999 -2000 0
2001 2002 2003 2004 2005 0
-2001 -2002 0
-2001 -2003 0
-2001 -2004 0
-2001 -2005 0
-2002 -2003 0
-2002 -2004 0
-2002 -2005 0
-2003 -2004 0
-2003 -2005 0
-2004 -2005 0
2006 2007 2008 2009 2010 0
-2006 -2007 0
-2006 -2008 0
-2006 -2009 0
-2006 -2010 0
-2007 -2008 0
-2007 -2009 0
-2007 -2010 0
-2008 -2009 0
-2008 -2010 0
-2009 -2010 0
2011 2012 2013 2014 2015 0
-2011 -2012 0
-2011 -2013 0
-2011 -2014 0
-2011 -2015 0
-2012 -2013 0
-2012 -2014 0
-2012 -2015 0
-2013 -2014 0
-2013 -2015 0
-2014 -2015 0
2016 2017 2018 2019 2020 0
-2016 -2017 0
-2016 -2018 0
-2016 -2019 0
-2016 -2020 0
-2017 -2018 0
-2017 -2019 0
-2017 -2020 0
-2018 -2019 0
-2018 -2020 0
-2019 -2020 0
2021 2022 2023 2024 2025 0
-2021 -2022 0
-2021 -2023 0
-2021 -2024 0
-2021 -2025 0
-2022 -2023 0
-2022 -2024 0
-2022 -2025 0
-2023 -2024 0
-2023 -2025 0
-2024 -2025 0
2026 2027 2028 2029 2030 0
-2026 -2027 0
-2026 -2028 0
-2026 -2029 0
-2026 -2030 0
-2027 -2028 0
-2027 -2029 0
-2027 -2030 0
-2028 -2029 0
-2028 -2030 0
-2029 -2030 0
2031 2032 2033 2034 2035 0
-2031 -2032 0
-2031 -2033 0
-2031 -2034 0
-2031 -2035 0
-2032 -2033 0
-2032 -2034 0
-2032 -2035 0
-2033 -2034 0
-2033 -2035 0
-2034 -2035 0
2036 2037 2038 2039 2040 0
-2036 -2037 0
-2036 -2038 0
-2036 -2039 0
-2036 -2040 0
-2037 -2038 0
-2037 -2039 0
-2037 -2040 0
-2038 -2039 0
-2038 -2040 0
-2039 -2040 0
2041 2042 2043 2044 2045 0
-2041 -2042 0
-2041 -2043 0
-2041 -2044 0
-2041 -2045 0
-2042 -2043 0
-2042 -2044 0
-2042 -2045 0
-2043 -2044 0
-2043 -2045 0
-2044 -2045 0
2046 2047 2048 2049 2050 0
-2046 -2047 0
-2046 -2048 0
-2046 -2049 0
-2046 -2050 0
-2047 -2048 0
-2047 -2049 0
-2047 -2050 0
-2048 -2049 0
-2048 -2050 0
-2049 -2050 0
2051 2052 2053 2054 2055 0
-2051 -2052 0
-2051 -2053 0
-2051 -2054 0
-2051 -2055 0
-2052 -2053 0
-2052 -2054 0
-2052 -2055 0
-2053 -2054 0
-2053 -2055 0
-2054 -2055 0
2056 2057 2058 2059 2060 0
-2056 -2057 0
-2056 -2058 0
-2056 -2059 0
-2056 -2060 0
-2057 -2058 0
-2057 -2059 0
-2057 -2060 0
-2058 -2059 0
-2058 -2060 0
-2059 -2060 0
2061 2062 2063 2064 2065 0
-2061 -2062 0
-2061 -2063 0
-2061 -2064 0
-2061 -2065 0
-2062 -2063 0
-2062 -2064 0
-2062 -2065 0
-2063 -2064 0
-2063 -2065 0
-2064 -2065 0
2066 2067 2068 2069 2070 0
-2066 -2067 0
-2066 -2068 0
-2066 -2069 0
-2066 -2070 0
-2067 -2068 0
-2067 -2069 0
-2067 -2070 0
-2068 -2069 0
-2068 -2070 0
-2069 -2070 0
2071 2072 2073 2074 2075 0
-2071 -2072 0
-2071 -2073 0
-2071 -2074 0
-2071 -2075 0
-2072 -2073 0
-2072 -2074 0
-2072 -2075 0
-2073 -2074 0
-2073 -2075 0
-2074 -2075 0
2076 2077 2078 2079 2080 0
-2076 -2077 0
-2076 -2078 0
-2076 -2079 0
-2076 -2080 0
-2077 -2078 0
-2077 -2079 0
-2077 -2080 0
-2078 -2079 0
-2078 -2080 0
-2079 -2080 0
2081 2082 2083 2084 2085 0
-2081 -2082 0
-2081 -2083 0
-2081 -2084 0
-2081 -2085 0
-2082 -2083 0
-2082 -2084 0
-2082 -2085 0
-2083 -2084 0
-2083 -2085 0
-2084 -2085 0
2086 2087 2088 2089 2090 0
-2086 -2087 0
-2086 -2088 0
-2086 -2089 0
-2086 -2090 0
-2087 -2088 0
-2087 -2089 0
-2087 -2090 0
-2088 -2089 0
-2088 -2090 0
-2089 -2090 0
2091 2092 2093 2094 2095 0
-2091 -2092 0
-2091 -2093 0
-2091 -2094 0
-2091 -2095 0
-2092 -2093 0
-2092 -2094 0
-2092 -2095 0
-2093 -2094 0
-2093 -2095 0
-2094 -2095 0
2096 2097 2098 2099 2100 0
-2096 -2097 0
-2096 -2098 0
-2096 -2099 0
-2096 -2100 0
-2097 -2098 0
-2097 -2099 0
-2097 -2100 0
-2098 -2099 0
-2098 -2100 0
-2099 -2100 0
2101 2102 2103 2104 2105 0
-2101 -2102 0
-2101 -2103 0
-2101 -2104 0
-2101 -2105 0
-2102 -2103 0
-2102 -2104 0
-2102 -2105 0
-2103 -2104 0
-2103 -2105 0
-2104 -2105 0
2106 2107 2108 2109 2110 0
-2106 -2107 0
-2106 -2108 0
-2106 -2109 0
-2106 -2110 0
-2107 -2108 0
-2107 -2109 0
-2107 -2110 0
-2108 -2109 0
-2108 -2110 0
-2109 -2110 0
2111 2112 2113 2114 2115 0
-2111 -2112 0
-2111 -2113 0
-2111 -2114 0
-2111 -2115 0
-2112 -2113 0
-2112 -2114 0
-2112 -2115 0
-2113 -2114 0
-2113 -2115 0
-2114 -2115 0
2116 2117 2118 2119 2120 0
-2116 -2117 0
-2116 -2118 0
-2116 -2119 0
-2116 -2120 0
-2117 -2118 0
-2117 -2119 0
-2117 -2120 0
-2118 -2119 0
-2118 -2120 0
-2119 -2120 0
2121 2122 2123 2124 2125 0
-2121 -2122 0
-2121 -2123 0
-2121 -2124 0
-2121 -2125 0
-2122 -2123 0
-2122 -2124 0
-2122 -2125 0
-2123 -2124 0
-2123 -2125 0
-2124 -2125 0
2126 2127 2128 2129 2130 0
-2126 -2127 0
-2126 -2128 0
-2126 -2129 0
-2126 -2130 0
-2127 -2128 0
-2127 -2129 0
-2127 -2130 0
-2128 -2129 0
-2128 -2130 0
-2129 -2130 0
2131 2132 2133 2134 2135 0
-2131 -2132 0
-2131 -2133 0
-2131 -2134 0
-2131 -2135 0
-2132 -2133 0
-2132 -2134 0
-2132 -2135 0
-2133 -2134 0
-2133 -2135 0
-2134 -2135 0
2136 2137 2138 2139 2140 0
-2136 -2137 0
-2136 -2138 0
-2136 -2139 0
-2136 -2140 0
-2137 -2138 0
-2137 -2139 0
-2137 -2140 0
-2138 -2139 0
-2138 -2140 0
-2139 -2140 0
2141 2142 2143 2144 2145 0
-2141 -2142 0
-2141 -2143 0
-2141 -2144 0
-2141 -2145 0
-2142 -2143 0
-2142 -2144 0
-2142 -2145 0
-2143 -2144 0
-2143 -2145 0
-2144 -2145 0
2146 2147 2148 2149 2150 0
-2146 -2147 0
-2146 -2148 0
-2146 -2149 0
-2146 -2150 0
-2147 -2148 0
-2147 -2149 0
-2147 -2150 0
-2148 -2149 0
-2148 -2150 0
-2149 -2150 0
2151 2152 2153 2154 2155 0
-2151 -2152 0
-2151 -2153 0
-2151 -2154 0
-2151 -2155 0
-2152 -2153 0
-2152 -2154 0
-2152 -2155 0
-2153 -2154 0
-2153 -2155 0
-2154 -2155 0
2156 2157 2158 2159 2160 0
-2156 -2157 0
-2156 -2158 0
-2156 -2159 0
-2156 -2160 0
-2157 -2158 0
-2157 -2159 0
-2157 -2160 0
-2158 -2159 0
-2158 -2160 0
-2159 -2160 0
2161 2162 2163 2164 2165 0
-2161 -2162 0
-2161 -2163 0
-2161 -2164 0
-2161 -2165 0
-2162 -2163 0
-2162 -2164 0
-2162 -2165 0
-2163 -2164 0
-2163 -2165 0
-2164 -2165 0
2166 2167 2168 2169 2170 0
-2166 -2167 0
-2166 -2168 0
-2166 -2169 0
-2166 -2170 0
-2167 -2168 0
-2167 -2169 0
-2167 -2170 0
-2168 -2169 0
-2168 -2170 0
-2169 -2170 0
2171 2172 2173 2174 2175 0
-2171 -2172 0
-2171 -2173 0
-2171 -2174 0
-2171 -2175 0
-2172 -2173 0
-2172 -2174 0
-2172 -2175 0
-2173 -2174 0
-2173 -2175 0
-2174 -2175 0
2176 2177 2178 2179 2180 0
-2176 -2177 0
-2176 -2178 0
-2176 -2179 0
-2176 -2180 0
-2177 -2178 0
-2177 -2179 0
-2177 -2180 0
-2178 -2179 0
-2178 -2180 0
-2179 -2180 0
2181 2182 2183 2184 2185 0
-2181 -2182 0
-2181 -2183 0
-2181 -2184 0
-2181 -2185 0
-2182 -2183 0
-2182 -2184 0
-2182 -2185 0
-2183 -2184 0
-2183 -2185 0
-2184 -2185 0
2186 2187 2188 2189 2190 0
-2186 -2187 0
-2186 -2188 0
-2186 -2189 0
-2186 -2190 0
-2187 -2188 0
-2187 -2189 0
-2187 -2190 0
-2188 -2189 0
-2188 -2190 0
-2189 -2190 0
2191 2192 2193 2194 2195 0
-2191 -2192 0
-2191 -2193 0
-2191 -2194 0
-2191 -2195 0
-2192 -2193 0
-2192 -2194 0
-2192 -2195 0
-2193 -2194 0
-2193 -2195 0
-2194 -2195 0
2196 2197 2198 2199 2200 0
-2196 -2197 0
-2196 -2198 0
-2196 -2199 0
-2196 -2200 0
-2197 -2198 0
-2197 -2199 0
-2197 -2200 0
-2198 -2199 0
-2198 -2200 0
-2199 -2200 0
2201 2202 2203 2204 2205 0
-2201 -2202 0
-2201 -2203 0
-2201 -2204 0
-2201 -2205 0
-2202 -2203 0
-2202 -2204 0
-2202 -2205 0
-2203 -2204 0
-2203 -2205 0
-2204 -2205 0
2206 2207 2208 2209 2210 0
-2206 -2207 0
-2206 -2208 0
-2206 -2209 0
-2206 -2210 0
-2207 -2208 0
-2207 -2209 0
-2207 -2210 0
-2208 -2209 0
-2208 -2210 0
-2209 -2210 0
2211 2212 2213 2214 2215 0
-2211 -2212 0
-2211 -2213 0
-2211 -2214 0
-2211 -2215 0
-2212 -2213 0
-2212 -2214 0
-2212 -2215 0
-2213 -2214 0
-2213 -2215 0
-2214 -2215 0
2216 2217 2218 2219 2220 0
-2216 -2217 0
-2216 -2218 0
-2216 -2219 0
-2216 -2220 0
-2217 -2218 0
-2217 -2219 0
-2217 -2220 0
-2218 -2219 0
-2218 -2220 0
-2219 -2220 0
2221 2222 2223 2224 2225 0
-2221 -2222 0
-2221 -2223 0
-2221 -2224 0
-2221 -2225 0
-2222 -2223 0
-2222 -2224 0
-2222 -2225 0
-2223 -2224 0
-2223 -2225 0
-2224 -2225 0
2226 2227 2228 2229 2230 0
-2226 -2227 0
-2226 -2228 0
-2226 -2229 0
-2226 -2230 0
-2227 -2228 0
-2227 -2229 0
-2227 -2230 0
-2228 -2229 0
-2228 -2230 0
-2229 -2230 0
2231 2232 2233 2234 2235 0
-2231 -2232 0
-2231 -2233 0
-2231 -2234 0
-2231 -2235 0
-2232 -2233 0
-2232 -2234 0
-2232 -2235 0
-2233 -2234 0
-2233 -2235 0
-2234 -2235 0
2236 2237 2238 2239 2240 0
-2236 -2237 0
-2236 -2238 0
-2236 -2239 0
-2236 -2240 0
-2237 -2238 0
-2237 -2239 0
-2237 -2240 0
-2238 -2239 0
-2238 -2240 0
-2239 -2240 0
2241 2242 2243 2244 2245 0
-2241 -2242 0
-2241 -2243 0
-2241 -2244 0
-2241 -2245 0
-2242 -2243 0
-2242 -2244 0
-2242 -2245 0
-2243 -2244 0
-2243 -2245 0
-2244 -2245 0
2246 2247 2248 2249 2250 0
-2246 -2247 0
-2246 -2248 0
-2246 -2249 0
-2246 -2250 0
-2247 -2248 0
-2247 -2249 0
-2247 -2250 0
-2248 -2249 0
-2248 -2250 0
-2249 -2250 0
2251 2252 2253 2254 2255 0
-2251 -2252 0
-2251 -2253 0
-2251 -2254 0
-2251 -2255 0
-2252 -2253 0
-2252 -2254 0
-2252 -2255 0
-2253 -2254 0
-2253 -2255 0
-2254 -2255 0
2256 2257 2258 2259 2260 0
-2256 -2257 0
-2256 -2258 0
-2256 -2259 0
-2256 -2260 0
-2257 -2258 0
-2257 -2259 0
-2257 -2260 0
-2258 -2259 0
-2258 -2260 0
-2259 -2260 0
2261 2262 2263 2264 2265 0
-2261 -2262 0
-2261 -2263 0
-2261 -2264 0
-2261 -2265 0
-2262 -2263 0
-2262 -2264 0
-2262 -2265 0
-2263 -2264 0
-2263 -2265 0
-2264 -2265 0
2266 2267 2268 2269 2270 0
-2266 -2267 0
-2266 -2268 0
-2266 -2269 0
-2266 -2270 0
-2267 -2268 0
-2267 -2269 0
-2267 -2270 0
-2268 -2269 0
-2268 -2270 0
-2269 -2270 0
2271 2272 2273 2274 2275 0
-2271 -2272 0
-2271 -2273 0
-2271 -2274 0
-2271 -2275 0
-2272 -2273 0
-2272 -2274 0
-2272 -2275 0
-2273 -2274 0
-2273 -2275 0
-2274 -2275 0
2276 2277 2278 2279 2280 0
-2276 -2277 0
-2276 -2278 0
-2276 -2279 0
-2276 -2280 0
-2277 -2278 0
-2277 -2279 0
-2277 -2280 0
-2278 -2279 0
-2278 -2280 0
-2279 -2280 0
2281 2282 2283 2284 2285 0
-2281 -2282 0
-2281 -2283 0
-2281 -2284 0
-2281 -2285 0
-2282 -2283 0
-2282 -2284 0
-2282 -2285 0
-2283 -2284 0
-2283 -2285 0
-2284 -2285 0
2286 2287 2288 2289 2290 0
-2286 -2287 0
-2286 -2288 0
-2286 -2289 0
-2286 -2290 0
-2287 -2288 0
-2287 -2289 0
-2287 -2290 0
-2288 -2289 0
-2288 -2290 0
-2289 -2290 0
2291 2292 2293 2294 2295 0
-2291 -2292 0
-2291 -2293 0
-2291 -2294 0
-2291 -2295 0
-2292 -2293 0
-2292 -2294 0
-2292 -2295 0
-2293 -2294 0
-2293 -2295 0
-2294 -2295 0
2296 2297 2298 2299 2300 0
-2296 -2297 0
-2296 -2298 0
-2296 -2299 0
-2296 -2300 0
-2297 -2298 0
-2297 -2299 0
-2297 -2300 0
-2298 -2299 0
-2298 -2300 0
-2299 -2300 0
2301 2302 2303 2304 2305 0
-2301 -2302 0
-2301 -2303 0
-2301 -2304 0
-2301 -2305 0
-2302 -2303 0
-2302 -2304 0
-2302 -2305 0
-2303 -2304 0
-2303 -2305 0
-2304 -2305 0
2306 2307 2308 2309 2310 0
-2306 -2307 0
-2306 -2308 0
-2306 -2309 0
-2306 -2310 0
-2307 -2308 0
-2307 -2309 0
-2307 -2310 0
-2308 -2309 0
-2308 -2310 0
-2309 -2310 0
2311 2312 2313 2314 2315 0
-2311 -2312 0
-2311 -2313 0
-2311 -2314 0
-2311 -2315 0
-2312 -2313 0
-2312 -2314 0
-2312 -2315 0
-2313 -2314 0
-2313 -2315 0
-2314 -2315 0
2316 2317 2318 2319 2320 0
-2316 -2317 0
-2316 -2318 0
-2316 -2319 0
-2316 -2320 0
-2317 -2318 0
-2317 -2319 0
-2317 -2320 0
-2318 -2319 0
-2318 -2320 0
-2319 -2320 0
2321 2322 2323 2324 2325 0
-2321 -2322 0
-2321 -2323 0
-2321 -2324 0
-2321 -2325 0
-2322 -2323 0
-2322 -2324 0
-2322 -2325 0
-2323 -2324 0
-2323 -2325 0
-2324 -2325 0
2326 2327 2328 2329 2330 0
-2326 -2327 0
-2326 -2328 0
-2326 -2329 0
-2326 -2330 0
-2327 -2328 0
-2327 -2329 0
-2327 -2330 0
-2328 -2329 0
-2328 -2330 0
-2329 -2330 0
2331 2332 2333 2334 2335 0
-2331 -2332 0
-2331 -2333 0
-2331 -2334 0
-2331 -2335 0
-2332 -2333 0
-2332 -2334 0
-2332 -2335 0
-2333 -2334 0
-2333 -2335 0
-2334 -2335 0
2336 2337 2338 2339 2340 0
-2336 -2337 0
-2336 -2338 0
-2336 -2339 0
-2336 -2340 0
-2337 -2338 0
-2337 -2339 0
-2337 -2340 0
-2338 -2339 0
-2338 -2340 0
-2339 -2340 0
2341 2342 2343 2344 2345 0
-2341 -2342 0
-2341 -2343 0
-2341 -2344 0
-2341 -2345 0
-2342 -2343 0
-2342 -2344 0
-2342 -2345 0
-2343 -2344 0
-2343 -2345 0
-2344 -2345 0
2346 2347 2348 2349 2350 0
-2346 -2347 0
-2346 -2348 0
-2346 -2349 0
-2346 -2350 0
-2347 -2348 0
-2347 -2349 0
-2347 -2350 0
-2348 -2349 0
-2348 -2350 0
-2349 -2350 0
2351 2352 2353 2354 2355 0
-2351 -2352 0
-2351 -2353 0
-2351 -2354 0
-2351 -2355 0
-2352 -2353 0
-2352 -2354 0
-2352 -2355 0
-2353 -2354 0
-2353 -2355 0
-2354 -2355 0
2356 2357 2358 2359 2360 0
-2356 -2357 0
-2356 -2358 0
-2356 -2359 0
-2356 -2360 0
-2357 -2358 0
-2357 -2359 0
-2357 -2360 0
-2358 -2359 0
-2358 -2360 0
-2359 -2360 0
2361 2362 2363 2364 2365 0
-2361 -2362 0
-2361 -2363 0
-2361 -2364 0
-2361 -2365 0
-2362 -2363 0
-2362 -2364 0
-2362 -2365 0
-2363 -2364 0
-2363 -2365 0
-2364 -2365 0
2366 2367 2368 2369 2370 0
-2366 -2367 0
-2366 -2368 0
-2366 -2369 0
-2366 -2370 0
-2367 -2368 0
-2367 -2369 0
-2367 -2370 0
-2368 -2369 0
-2368 -2370 0
-2369 -2370 0
2371 2372 2373 2374 2375 0
-2371 -2372 0
-2371 -2373 0
-2371 -2374 0
-2371 -2375 0
-2372 -2373 0
-2372 -2374 0
-2372 -2375 0
-2373 -2374 0
-2373 -2375 0
-2374 -2375 0
2376 2377 2378 2379 2380 0
-2376 -2377 0
-2376 -2378 0
-2376 -2379 0
-2376 -2380 0
-2377 -2378 0
-2377 -2379 0
-2377 -2380 0
-2378 -2379 0
-2378 -2380 0
-2379 -2380 0
2381 2382 2383 2384 2385 0
-2381 -2382 0
-2381 -2383 0
-2381 -2384 0
-2381 -2385 0
-2382 -2383 0
-2382 -2384 0
-2382 -2385 0
-2383 -2384 0
-2383 -2385 0
-2384 -2385 0
2386 2387 2388 2389 2390 0
-2386 -2387 0
-2386 -2388 0
-2386 -2389 0
-2386 -2390 0
-2387 -2388 0
-2387 -2389 0
-2387 -2390 0
-2388 -2389 0
-2388 -2390 0
-2389 -2390 0
2391 2392 2393 2394 2395 0
-2391 -2392 0
-2391 -2393 0
-2391 -2394 0
-2391 -2395 0
-2392 -2393 0
-2392 -2394 0
-2392 -2395 0
-2393 -2394 0
-2393 -2395 0
-2394 -2395 0
2396 2397 2398 2399 2400 0
-2396 -2397 0
-2396 -2398 0
-2396 -2399 0
-2396 -2400 0
-2397 -2398 0
-2397 -2399 0
-2397 -2400 0
-2398 -2399 0
-2398 -2400 0
-2399 -2400 0
2401 2402 2403 2404 2405 0
-2401 -2402 0
-2401 -2403 0
-2401 -2404 0
-2401 -2405 0
-2402 -2403 0
-2402 -2404 0
-2402 -2405 0
-2403 -2404 0
-2403 -2405 0
-2404 -2405 0
2406 2407 2408 2409 2410 0
-2406 -2407 0
-2406 -2408 0
-2406 -2409 0
-2406 -2410 0
-2407 -2408 0
-2407 -2409 0
-2407 -2410 0
-2408 -2409 0
-2408 -2410 0
-2409 -2410 0
2411 2412 2413 2414 2415 0
-2411 -2412 0
-2411 -2413 0
-2411 -2414 0
-2411 -2415 0
-2412 -2413 0
-2412 -2414 0
-2412 -2415 0
-2413 -2414 0
-2413 -2415 0
-2414 -2415 0
2416 2417 2418 2419 2420 0
-2416 -2417 0
-2416 -2418 0
-2416 -2419 0
-2416 -2420 0
-2417 -2418 0
-2417 -2419 0
-2417 -2420 0
-2418 -2419 0
-2418 -2420 0
-2419 -2420 0
2421 2422 2423 2424 2425 0
-2421 -2422 0
-2421 -2423 0
-2421 -2424 0
-2421 -2425 0
-2422 -2423 0
-2422 -2424 0
-2422 -2425 0
-2423 -2424 0
-2423 -2425 0
-2424 -2425 0
2426 2427 2428 2429 2430 0
-2426 -2427 0
-2426 -2428 0
-2426 -2429 0
-2426 -2430 0
-2427 -2428 0
-2427 -2429 0
-2427 -2430 0
-2428 -2429 0
-2428 -2430 0
-2429 -2430 0
2431 2432 2433 2434 2435 0
-2431 -2432 0
-2431 -2433 0
-2431 -2434 0
-2431 -2435 0
-2432 -2433 0
-2432 -2434 0
-2432 -2435 0
-2433 -2434 0
-2433 -2435 0
-2434 -2435 0
2436 2437 2438 2439 2440 0
-2436 -2437 0
-2436 -2438 0
-2436 -2439 0
-2436 -2440 0
-2437 -2438 0
-2437 -2439 0
-2437 -2440 0
-2438 -2439 0
-2438 -2440 0
-2439 -2440 0
2441 2442 2443 2444 2445 0
-2441 -2442 0
-2441 -2443 0
-2441 -2444 0
-2441 -2445 0
-2442 -2443 0
-2442 -2444 0
-2442 -2445 0
-2443 -2444 0
-2443 -2445 0
-2444 -2445 0
2446 2447 2448 2449 2450 0
-2446 -2447 0
-2446 -2448 0
-2446 -2449 0
-2446 -2450 0
-2447 -2448 0
-2447 -2449 0
-2447 -2450 0
-2448 -2449 0
-2448 -2450 0
-2449 -2450 0
2451 2452 2453 2454 2455 0
-2451 -2452 0
-2451 -2453 0
-2451 -2454 0
-2451 -2455 0
-2452 -2453 0
-2452 -2454 0
-2452 -2455 0
-2453 -2454 0
-2453 -2455 0
-2454 -2455 0
2456 2457 2458 2459 2460 0
-2456 -2457 0
-2456 -2458 0
-2456 -2459 0
-2456 -2460 0
-2457 -2458 0
-2457 -2459 0
-2457 -2460 0
-2458 -2459 0
-2458 -2460 0
-2459 -2460 0
2461 2462 2463 2464 2465 0
-2461 -2462 0
-2461 -2463 0
-2461 -2464 0
-2461 -2465 0
-2462 -2463 0
-2462 -2464 0
-2462 -2465 0
-2463 -2464 0
-2463 -2465 0
-2464 -2465 0
2466 2467 2468 2469 2470 0
-2466 -2467 0
-2466 -2468 0
-2466 -2469 0
-2466 -2470 0
-2467 -2468 0
-2467 -2469 0
-2467 -2470 0
-2468 -2469 0
-2468 -2470 0
-2469 -2470 0
2471 2472 2473 2474 2475 0
-2471 -2472 0
-2471 -2473 0
-2471 -2474 0
-2471 -2475 0
-2472 -2473 0
-2472 -2474 0
-2472 -2475 0
-2473 -2474 0
-2473 -2475 0
-2474 -2475 0
2476 2477 2478 2479 2480 0
-2476 -2477 0
-2476 -2478 0
-2476 -2479 0
-2476 -2480 0
-2477 -2478 0
-2477 -2479 0
-2477 -2480 0
-2478 -2479 0
-2478 -2480 0
-2479 -2480 0
2481 2482 2483 2484 2485 0
-2481 -2482 0
-2481 -2483 0
-2481 -2484 0
-2481 -2485 0
-2482 -2483 0
-2482 -2484 0
-2482 -2485 0
-2483 -2484 0
-2483 -2485 0
-2484 -2485 0
2486 2487 2488 2489 2490 0
-2486 -2487 0
-2486 -2488 0
-2486 -2489 0
-2486 -2490 0
-2487 -2488 0
-2487 -2489 0
-2487 -2490 0
-2488 -2489 0
-2488 -2490 0
-2489 -2490 0
2491 2492 2493 2494 2495 0
-2491 -2492 0
-2491 -2493 0
-2491 -2494 0
-2491 -2495 0
-2492 -2493 0
-2492 -2494 0
-2492 -2495 0
-2493 -2494 0
-2493 -2495 0
-2494 -2495 0
2496 2497 2498 2499 2500 0
-2496 -2497 0
-2496 -2498 0
-2496 -2499 0
-2496 -2500 0
-2497 -2498 0
-2497 -2499 0
-2497 -2500 0
-2498 -2499 0
-2498 -2500 0
-2499 -2500 0
2501 2502 2503 2504 2505 0
-2501 -2502 0
-2501 -2503 0
-2501 -2504 0
-2501 -2505 0
-2502 -2503 0
-2502 -2504 0
-2502 -2505 0
-2503 -2504 0
-2503 -2505 0
-2504 -2505 0
2506 2507 2508 2509 2510 0
-2506 -2507 0
-2506 -2508 0
-2506 -2509 0
-2506 -2510 0
-2507 -2508 0
-2507 -2509 0
-2507 -2510 0
-2508 -2509 0
-2508 -2510 0
-2509 -2510 0
2511 2512 2513 2514 2515 0
-2511 -2512 0
-2511 -2513 0
-2511 -2514 0
-2511 -2515 0
-2512 -2513 0
-2512 -2514 0
-2512 -2515 0
-2513 -2514 0
-2513 -2515 0
-2514 -2515 0
2516 2517 2518 2519 2520 0
-2516 -2517 0
-2516 -2518 0
-2516 -2519 0
-2516 -2520 0
-2517 -2518 0
-2517 -2519 0
-2517 -2520 0
-2518 -2519 0
-2518 -2520 0
-2519 -2520 0
2521 2522 2523 2524 2525 0
-2521 -2522 0
-2521 -2523 0
-2521 -2524 0
-2521 -2525 0
-2522 -2523 0
-2522 -2524 0
-2522 -2525 0
-2523 -2524 0
-2523 -2525 0
-2524 -2525 0
2526 2527 2528 2529 2530 0
-2526 -2527 0
-2526 -2528 0
-2526 -2529 0
-2526 -2530 0
-2527 -2528 0
-2527 -2529 0
-2527 -2530 0
-2528 -2529 0
-2528 -2530 0
-2529 -2530 0
2531 2532 2533 2534 2535 0
-2531 -2532 0
-2531 -2533 0
-2531 -2534 0
-2531 -2535 0
-2532 -2533 0
-2532 -2534 0
-2532 -2535 0
-2533 -2534 0
-2533 -2535 0
-2534 -2535 0
2536 2537 2538 2539 2540 0
-2536 -2537 0
-2536 -2538 0
-2536 -2539 0
-2536 -2540 0
-2537 -2538 0
-2537 -2539 0
-2537 -2540 0
-2538 -2539 0
-2538 -2540 0
-2539 -2540 0
2541 2542 2543 2544 2545 0
-2541 -2542 0
-2541 -2543 0
-2541 -2544 0
-2541 -2545 0
-2542 -2543 0
-2542 -2544 0
-2542 -2545 0
-2543 -2544 0
-2543 -2545 0
-2544 -2545 0
-1 -741 0
-2 -742 0
-3 -743 0
-4 -744 0
-5 -745 0
-1 -746 0
-2 -747 0
-3 -748 0
-4 -749 0
-5 -750 0
-1 -751 0
-2 -752 0
-3 -753 0
-4 -754 0
-5 -755 0
-1 -756 0
-2 -757 0
-3 -758 0
-4 -759 0
-5 -760 0
-1 -761 0
-2 -762 0
-3 -763 0
-4 -764 0
-5 -765 0
-1 -766 0
-2 -767 0
-3 -768 0
-4 -769 0
-5 -770 0
-1 -771 0
-2 -772 0
-3 -773 0
-4 -774 0
-5 -775 0
-1 -776 0
-2 -777 0
-3 -778 0
-4 -779 0
-5 -780 0
-1 -781 0
-2 -782 0
-3 -783 0
-4 -784 0
-5 -785 0
-1 -786 0
-2 -787 0
-3 -788 0
-4 -789 0
-5 -790 0
-1 -791 0
-2 -792 0
-3 -793 0
-4 -794 0
-5 -795 0
-1 -796 0
-2 -797 0
-3 -798 0
-4 -799 0
-5 -800 0
-1 -801 0
-2 -802 0
-3 -803 0
-4 -804 0
-5 -805 0
-1 -806 0
-2 -807 0
-3 -808 0
-4 -809 0
-5 -810 0
-1 -811 0
-2 -812 0
-3 -813 0
-4 -814 0
-5 -815 0
-1 -816 0
-2 -817 0
-3 -818 0
-4 -819 0
-5 -820 0
-1 -821 0
-2 -822 0
-3 -823 0
-4 -824 0
-5 -825 0
-1 -826 0
-2 -827 0
-3 -828 0
-4 -829 0
-5 -830 0
-1 -831 0
-2 -832 0
-3 -833 0
-4 -834 0
-5 -835 0
-1 -836 0
-2 -837 0
-3 -838 0
-4 -839 0
-5 -840 0
-1 -841 0
-2 -842 0
-3 -843 0
-4 -844 0
-5 -845 0
-1 -846 0
-2 -847 0
-3 -848 0
-4 -849 0
-5 -850 0
-1 -851 0
-2 -852 0
-3 -853 0
-4 -854 0
-5 -855 0
-1 -856 0
-2 -857 0
-3 -858 0
-4 -859 0
-5 -860 0
-1 -1986 0
-2 -1987 0
-3 -1988 0
-4 -1989 0
-5 -1990 0
-1 -1991 0
-2 -1992 0
-3 -1993 0
-4 -1994 0
-5 -1995 0
-1 -1996 0
-2 -1997 0
-3 -1998 0
-4 -1999 0
-5 -2000 0
-1 -2001 0
-2 -2002 0
-3 -2003 0
-4 -2004 0
-5 -2005 0
-1 -2006 0
-2 -2007 0
-3 -2008 0
-4 -2009 0
-5 -2010 0
-1 -2011 0
-2 -2012 0
-3 -2013 0
-4 -2014 0
-5 -2015 0
-1 -2016 0
-2 -2017 0
-3 -2018 0
-4 -2019 0
-5 -2020 0
-1 -2021 0
-2 -2022 0
-3 -2023 0
-4 -2024 0
-5 -2025 0
-1 -2026 0
-2 -2027 0
-3 -2028 0
-4 -2029 0
-5 -2030 0
-1 -2031 0
-2 -2032 0
-3 -2033 0
-4 -2034 0
-5 -2035 0
-1 -2036 0
-2 -2037 0
-3 -2038 0
-4 -2039 0
-5 -2040 0
-1 -2041 0
-2 -2042 0
-3 -2043 0
-4 -2044 0
-5 -2045 0
-6 -651 0
-7 -652 0
-8 -653 0
-9 -654 0
-10 -655 0
-6 -691 0
-7 -692 0
-8 -693 0
-9 -694 0
-10 -695 0
-6 -711 0
-7 -712 0
-8 -713 0
-9 -714 0
-10 -715 0
-6 -771 0
-7 -772 0
-8 -773 0
-9 -774 0
-10 -775 0
-6 -871 0
-7 -872 0
-8 -873 0
-9 -874 0
-10 -875 0
-6 -911 0
-7 -912 0
-8 -913 0
-9 -914 0
-10 -915 0
-6 -941 0
-7 -942 0
-8 -943 0
-9 -944 0
-10 -945 0
-6 -991 0
-7 -992 0
-8 -993 0
-9 -994 0
-10 -995 0
-6 -996 0
-7 -997 0
-8 -998 0
-9 -999 0
-10 -1000 0
-6 -1006 0
-7 -1007 0
-8 -1008 0
-9 -1009 0
-10 -1010 0
-11 -601 0
-12 -602 0
-13 -603 0
-14 -604 0
-15 -605 0
-11 -606 0
-12 -607 0
-13 -608 0
-14 -609 0
-15 -610 0
-11 -636 0
-12 -637 0
-13 -638 0
-14 -639 0
-15 -640 0
-11 -656 0
-12 -657 0
-13 -658 0
-14 -659 0
-15 -660 0
-11 -696 0
-12 -697 0
-13 -698 0
-14 -699 0
-15 -700 0
-11 -716 0
-12 -717 0
-13 -718 0
-14 -719 0
-15 -720 0
-11 -781 0
-12 -782 0
-13 -783 0
-14 -784 0
-15 -785 0
-11 -841 0
-12 -842 0
-13 -843 0
-14 -844 0
-15 -845 0
-11 -876 0
-12 -877 0
-13 -878 0
-14 -879 0
-15 -880 0
-11 -916 0
-12 -917 0
-13 -918 0
-14 -919 0
-15 -920 0
-11 -936 0
-12 -937 0
-13 -938 0
-14 -939 0
-15 -940 0
-11 -946 0
-12 -947 0
-13 -948 0
-14 -949 0
-15 -950 0
-11 -1001 0
-12 -1002 0
-13 -1003 0
-14 -1004 0
-15 -1005 0
-11 -1011 0
-12 -1012 0
-13 -1013 0
-14 -1014 0
-15 -1015 0
-11 -1086 0
-12 -1087 0
-13 -1088 0
-14 -1089 0
-15 -1090 0
-16 -611 0
-17 -612 0
-18 -613 0
-19 -614 0
-20 -615 0
-16 -616 0
-17 -617 0
-18 -618 0
-19 -619 0
-20 -620 0
-16 -636 0
-17 -637 0
-18 -638 0
-19 -639 0
-20 -640 0
-16 -661 0
-17 -662 0
-18 -663 0
-19 -664 0
-20 -665 0
-16 -701 0
-17 -702 0
-18 -703 0
-19 -704 0
-20 -705 0
-16 -721 0
-17 -722 0
-18 -723 0
-19 -724 0
-20 -725 0
-16 -736 0
-17 -737 0
-18 -738 0
-19 -739 0
-20 -740 0
-16 -796 0
-17 -797 0
-18 -798 0
-19 -799 0
-20 -800 0
-16 -856 0
-17 -857 0
-18 -858 0
-19 -859 0
-20 -860 0
-16 -861 0
-17 -862 0
-18 -863 0
-19 -864 0
-20 -865 0
-16 -881 0
-17 -882 0
-18 -883 0
-19 -884 0
-20 -885 0
-16 -941 0
-17 -942 0
-18 -943 0
-19 -944 0
-20 -945 0
-16 -951 0
-17 -952 0
-18 -953 0
-19 -954 0
-20 -955 0
-16 -1011 0
-17 -1012 0
-18 -1013 0
-19 -1014 0
-20 -1015 0
-16 -1021 0
-17 -1022 0
-18 -1023 0
-19 -1024 0
-20 -1025 0
-21 -666 0
-22 -667 0
-23 -668 0
-24 -669 0
-25 -670 0
-21 -706 0
-22 -707 0
-23 -708 0
-24 -709 0
-25 -710 0
-21 -726 0
-22 -727 0
-23 -728 0
-24 -729 0
-25 -730 0
-21 -746 0
-22 -747 0
-23 -748 0
-24 -749 0
-25 -750 0
-21 -866 0
-22 -867 0
-23 -868 0
-24 -869 0
-25 -870 0
-21 -886 0
-22 -887 0
-23 -888 0
-24 -889 0
-25 -890 0
-21 -946 0
-22 -947 0
-23 -948 0
-24 -949 0
-25 -950 0
-21 -956 0
-22 -957 0
-23 -958 0
-24 -959 0
-25 -960 0
-21 -1016 0
-22 -1017 0
-23 -1018 0
-24 -1019 0
-25 -1020 0
-21 -1026 0
-22 -1027 0
-23 -1028 0
-24 -1029 0
-25 -1030 0
-26 -661 0
-27 -662 0
-28 -663 0
-29 -664 0
-30 -665 0
-26 -671 0
-27 -672 0
-28 -673 0
-29 -674 0
-30 -675 0
-26 -711 0
-27 -712 0
-28 -713 0
-29 -714 0
-30 -715 0
-26 -811 0
-27 -812 0
-28 -813 0
-29 -814 0
-30 -815 0
-26 -871 0
-27 -872 0
-28 -873 0
-29 -874 0
-30 -875 0
-26 -891 0
-27 -892 0
-28 -893 0
-29 -894 0
-30 -895 0
-26 -951 0
-27 -952 0
-28 -953 0
-29 -954 0
-30 -955 0
-26 -961 0
-27 -962 0
-28 -963 0
-29 -964 0
-30 -965 0
-26 -1026 0
-27 -1027 0
-28 -1028 0
-29 -1029 0
-30 -1030 0
-26 -1036 0
-27 -1037 0
-28 -1038 0
-29 -1039 0
-30 -1040 0
-31 -621 0
-32 -622 0
-33 -623 0
-34 -624 0
-35 -625 0
-31 -626 0
-32 -627 0
-33 -628 0
-34 -629 0
-35 -630 0
-31 -666 0
-32 -667 0
-33 -668 0
-34 -669 0
-35 -670 0
-31 -676 0
-32 -677 0
-33 -678 0
-34 -679 0
-35 -680 0
-31 -716 0
-32 -717 0
-33 -718 0
-34 -719 0
-35 -720 0
-31 -761 0
-32 -762 0
-33 -763 0
-34 -764 0
-35 -765 0
-31 -821 0
-32 -822 0
-33 -823 0
-34 -824 0
-35 -825 0
-31 -876 0
-32 -877 0
-33 -878 0
-34 -879 0
-35 -880 0
-31 -896 0
-32 -897 0
-33 -898 0
-34 -899 0
-35 -900 0
-31 -956 0
-32 -957 0
-33 -958 0
-34 -959 0
-35 -960 0
-31 -966 0
-32 -967 0
-33 -968 0
-34 -969 0
-35 -970 0
-31 -1031 0
-32 -1032 0
-33 -1033 0
-34 -1034 0
-35 -1035 0
-31 -1041 0
-32 -1042 0
-33 -1043 0
-34 -1044 0
-35 -1045 0
-31 -1091 0
-32 -1092 0
-33 -1093 0
-34 -1094 0
-35 -1095 0
-36 -576 0
-37 -577 0
-38 -578 0
-39 -579 0
-40 -580 0
-36 -626 0
-37 -627 0
-38 -628 0
-39 -629 0
-40 -630 0
-36 -641 0
-37 -642 0
-38 -643 0
-39 -644 0
-40 -645 0
-36 -681 0
-37 -682 0
-38 -683 0
-39 -684 0
-40 -685 0
-36 -721 0
-37 -722 0
-38 -723 0
-39 -724 0
-40 -725 0
-36 -776 0
-37 -777 0
-38 -778 0
-39 -779 0
-40 -780 0
-36 -836 0
-37 -837 0
-38 -838 0
-39 -839 0
-40 -840 0
-36 -881 0
-37 -882 0
-38 -883 0
-39 -884 0
-40 -885 0
-36 -901 0
-37 -902 0
-38 -903 0
-39 -904 0
-40 -905 0
-36 -961 0
-37 -962 0
-38 -963 0
-39 -964 0
-40 -965 0
-36 -971 0
-37 -972 0
-38 -973 0
-39 -974 0
-40 -975 0
-36 -1041 0
-37 -1042 0
-38 -1043 0
-39 -1044 0
-40 -1045 0
-36 -1051 0
-37 -1052 0
-38 -1053 0
-39 -1054 0
-40 -1055 0
-36 -1096 0
-37 -1097 0
-38 -1098 0
-39 -1099 0
-40 -1100 0
-41 -646 0
-42 -647 0
-43 -648 0
-44 -649 0
-45 -650 0
-41 -686 0
-42 -687 0
-43 -688 0
-44 -689 0
-45 -690 0
-41 -726 0
-42 -727 0
-43 -728 0
-44 -729 0
-45 -730 0
-41 -786 0
-42 -787 0
-43 -788 0
-44 -789 0
-45 -790 0
-41 -886 0
-42 -887 0
-43 -888 0
-44 -889 0
-45 -890 0
-41 -906 0
-42 -907 0
-43 -908 0
-44 -909 0
-45 -910 0
-41 -966 0
-42 -967 0
-43 -968 0
-44 -969 0
-45 -970 0
-41 -976 0
-42 -977 0
-43 -978 0
-44 -979 0
-45 -980 0
-41 -1046 0
-42 -1047 0
-43 -1048 0
-44 -1049 0
-45 -1050 0
-41 -1056 0
-42 -1057 0
-43 -1058 0
-44 -1059 0
-45 -1060 0
-46 -641 0
-47 -642 0
-48 -643 0
-49 -644 0
-50 -645 0
-46 -671 0
-47 -672 0
-48 -673 0
-49 -674 0
-50 -675 0
-46 -691 0
-47 -692 0
-48 -693 0
-49 -694 0
-50 -695 0
-46 -851 0
-47 -852 0
-48 -853 0
-49 -854 0
-50 -855 0
-46 -891 0
-47 -892 0
-48 -893 0
-49 -894 0
-50 -895 0
-46 -911 0
-47 -912 0
-48 -913 0
-49 -914 0
-50 -915 0
-46 -971 0
-47 -972 0
-48 -973 0
-49 -974 0
-50 -975 0
-46 -981 0
-47 -982 0
-48 -983 0
-49 -984 0
-50 -985 0
-46 -1056 0
-47 -1057 0
-48 -1058 0
-49 -1059 0
-50 -1060 0
-46 -1066 0
-47 -1067 0
-48 -1068 0
-49 -1069 0
-50 -1070 0
-51 -581 0
-52 -582 0
-53 -583 0
-54 -584 0
-55 -585 0
-51 -586 0
-52 -587 0
-53 -588 0
-54 -589 0
-55 -590 0
-51 -631 0
-52 -632 0
-53 -633 0
-54 -634 0
-55 -635 0
-51 -646 0
-52 -647 0
-53 -648 0
-54 -649 0
-55 -650 0
-51 -676 0
-52 -677 0
-53 -678 0
-54 -679 0
-55 -680 0
-51 -696 0
-52 -697 0
-53 -698 0
-54 -699 0
-55 -700 0
-51 -731 0
-52 -732 0
-53 -733 0
-54 -734 0
-55 -735 0
-51 -741 0
-52 -742 0
-53 -743 0
-54 -744 0
-55 -745 0
-51 -801 0
-52 -802 0
-53 -803 0
-54 -804 0
-55 -805 0
-51 -896 0
-52 -897 0
-53 -898 0
-54 -899 0
-55 -900 0
-51 -916 0
-52 -917 0
-53 -918 0
-54 -919 0
-55 -920 0
-51 -976 0
-52 -977 0
-53 -978 0
-54 -979 0
-55 -980 0
-51 -986 0
-52 -987 0
-53 -988 0
-54 -989 0
-55 -990 0
-51 -1061 0
-52 -1062 0
-53 -1063 0
-54 -1064 0
-55 -1065 0
-51 -1071 0
-52 -1072 0
-53 -1073 0
-54 -1074 0
-55 -1075 0
-56 -591 0
-57 -592 0
-58 -593 0
-59 -594 0
-60 -595 0
-56 -596 0
-57 -597 0
-58 -598 0
-59 -599 0
-60 -600 0
-56 -631 0
-57 -632 0
-58 -633 0
-59 -634 0
-60 -635 0
-56 -651 0
-57 -652 0
-58 -653 0
-59 -654 0
-60 -655 0
-56 -681 0
-57 -682 0
-58 -683 0
-59 -684 0
-60 -685 0
-56 -701 0
-57 -702 0
-58 -703 0
-59 -704 0
-60 -705 0
-56 -756 0
-57 -757 0
-58 -758 0
-59 -759 0
-60 -760 0
-56 -816 0
-57 -817 0
-58 -818 0
-59 -819 0
-60 -820 0
-56 -861 0
-57 -862 0
-58 -863 0
-59 -864 0
-60 -865 0
-56 -901 0
-57 -902 0
-58 -903 0
-59 -904 0
-60 -905 0
-56 -981 0
-57 -982 0
-58 -983 0
-59 -984 0
-60 -985 0
-56 -991 0
-57 -992 0
-58 -993 0
-59 -994 0
-60 -995 0
-56 -1071 0
-57 -1072 0
-58 -1073 0
-59 -1074 0
-60 -1075 0
-56 -1081 0
-57 -1082 0
-58 -1083 0
-59 -1084 0
-60 -1085 0
-56 -1101 0
-57 -1102 0
-58 -1103 0
-59 -1104 0
-60 -1105 0
-61 -656 0
-62 -657 0
-63 -658 0
-64 -659 0
-65 -660 0
-61 -686 0
-62 -687 0
-63 -688 0
-64 -689 0
-65 -690 0
-61 -706 0
-62 -707 0
-63 -708 0
-64 -709 0
-65 -710 0
-61 -826 0
-62 -827 0
-63 -828 0
-64 -829 0
-65 -830 0
-61 -866 0
-62 -867 0
-63 -868 0
-64 -869 0
-65 -870 0
-61 -906 0
-62 -907 0
-63 -908 0
-64 -909 0
-65 -910 0
-61 -936 0
-62 -937 0
-63 -938 0
-64 -939 0
-65 -940 0
-61 -986 0
-62 -987 0
-63 -988 0
-64 -989 0
-65 -990 0
-61 -996 0
-62 -997 0
-63 -998 0
-64 -999 0
-65 -1000 0
-61 -1076 0
-62 -1077 0
-63 -1078 0
-64 -1079 0
-65 -1080 0
-66 -466 0
-67 -467 0
-68 -468 0
-69 -469 0
-70 -470 0
-66 -471 0
-67 -472 0
-68 -473 0
-69 -474 0
-70 -475 0
-66 -526 0
-67 -527 0
-68 -528 0
-69 -529 0
-70 -530 0
-66 -531 0
-67 -532 0
-68 -533 0
-69 -534 0
-70 -535 0
-66 -631 0
-67 -632 0
-68 -633 0
-69 -634 0
-70 -635 0
-66 -636 0
-67 -637 0
-68 -638 0
-69 -639 0
-70 -640 0
-66 -921 0
-67 -922 0
-68 -923 0
-69 -924 0
-70 -925 0
-66 -931 0
-67 -932 0
-68 -933 0
-69 -934 0
-70 -935 0
-66 -941 0
-67 -942 0
-68 -943 0
-69 -944 0
-70 -945 0
-66 -986 0
-67 -987 0
-68 -988 0
-69 -989 0
-70 -990 0
-66 -1086 0
-67 -1087 0
-68 -1088 0
-69 -1089 0
-70 -1090 0
-66 -1101 0
-67 -1102 0
-68 -1103 0
-69 -1104 0
-70 -1105 0
-71 -486 0
-72 -487 0
-73 -488 0
-74 -489 0
-75 -490 0
-71 -491 0
-72 -492 0
-73 -493 0
-74 -494 0
-75 -495 0
-71 -546 0
-72 -547 0
-73 -548 0
-74 -549 0
-75 -550 0
-71 -551 0
-72 -552 0
-73 -553 0
-74 -554 0
-75 -555 0
-71 -626 0
-72 -627 0
-73 -628 0
-74 -629 0
-75 -630 0
-71 -636 0
-72 -637 0
-73 -638 0
-74 -639 0
-75 -640 0
-71 -921 0
-72 -922 0
-73 -923 0
-74 -924 0
-75 -925 0
-71 -926 0
-72 -927 0
-73 -928 0
-74 -929 0
-75 -930 0
-71 -946 0
-72 -947 0
-73 -948 0
-74 -949 0
-75 -950 0
-71 -961 0
-72 -962 0
-73 -963 0
-74 -964 0
-75 -965 0
-71 -1091 0
-72 -1092 0
-73 -1093 0
-74 -1094 0
-75 -1095 0
-76 -446 0
-77 -447 0
-78 -448 0
-79 -449 0
-80 -450 0
-76 -451 0
-77 -452 0
-78 -453 0
-79 -454 0
-80 -455 0
-76 -506 0
-77 -507 0
-78 -508 0
-79 -509 0
-80 -510 0
-76 -511 0
-77 -512 0
-78 -513 0
-79 -514 0
-80 -515 0
-76 -626 0
-77 -627 0
-78 -628 0
-79 -629 0
-80 -630 0
-76 -631 0
-77 -632 0
-78 -633 0
-79 -634 0
-80 -635 0
-76 -926 0
-77 -927 0
-78 -928 0
-79 -929 0
-80 -930 0
-76 -931 0
-77 -932 0
-78 -933 0
-79 -934 0
-80 -935 0
-76 -966 0
-77 -967 0
-78 -968 0
-79 -969 0
-80 -970 0
-76 -981 0
-77 -982 0
-78 -983 0
-79 -984 0
-80 -985 0
-76 -1096 0
-77 -1097 0
-78 -1098 0
-79 -1099 0
-80 -1100 0
-81 -406 0
-82 -407 0
-83 -408 0
-84 -409 0
-85 -410 0
-81 -461 0
-82 -462 0
-83 -463 0
-84 -464 0
-85 -465 0
-81 -571 0
-82 -572 0
-83 -573 0
-84 -574 0
-85 -575 0
-81 -611 0
-82 -612 0
-83 -613 0
-84 -614 0
-85 -615 0
-81 -766 0
-82 -767 0
-83 -768 0
-84 -769 0
-85 -770 0
-81 -836 0
-82 -837 0
-83 -838 0
-84 -839 0
-85 -840 0
-81 -1011 0
-82 -1012 0
-83 -1013 0
-84 -1014 0
-85 -1015 0
-81 -1076 0
-82 -1077 0
-83 -1078 0
-84 -1079 0
-85 -1080 0
-81 -1126 0
-82 -1127 0
-83 -1128 0
-84 -1129 0
-85 -1130 0
-81 -1131 0
-82 -1132 0
-83 -1133 0
-84 -1134 0
-85 -1135 0
-86 -431 0
-87 -432 0
-88 -433 0
-89 -434 0
-90 -435 0
-86 -496 0
-87 -497 0
-88 -498 0
-89 -499 0
-90 -500 0
-86 -571 0
-87 -572 0
-88 -573 0
-89 -574 0
-90 -575 0
-86 -606 0
-87 -607 0
-88 -608 0
-89 -609 0
-90 -610 0
-86 -731 0
-87 -732 0
-88 -733 0
-89 -734 0
-90 -735 0
-86 -751 0
-87 -752 0
-88 -753 0
-89 -754 0
-90 -755 0
-86 -801 0
-87 -802 0
-88 -803 0
-89 -804 0
-90 -805 0
-86 -1011 0
-87 -1012 0
-88 -1013 0
-89 -1014 0
-90 -1015 0
-86 -1036 0
-87 -1037 0
-88 -1038 0
-89 -1039 0
-90 -1040 0
-86 -1111 0
-87 -1112 0
-88 -1113 0
-89 -1114 0
-90 -1115 0
-86 -1146 0
-87 -1147 0
-88 -1148 0
-89 -1149 0
-90 -1150 0
-86 -1151 0
-87 -1152 0
-88 -1153 0
-89 -1154 0
-90 -1155 0
-91 -426 0
-92 -427 0
-93 -428 0
-94 -429 0
-95 -430 0
-91 -481 0
-92 -482 0
-93 -483 0
-94 -484 0
-95 -485 0
-91 -561 0
-92 -562 0
-93 -563 0
-94 -564 0
-95 -565 0
-91 -756 0
-92 -757 0
-93 -758 0
-94 -759 0
-95 -760 0
-91 -806 0
-92 -807 0
-93 -808 0
-94 -809 0
-95 -810 0
-91 -1016 0
-92 -1017 0
-93 -1018 0
-94 -1019 0
-95 -1020 0
-91 -1041 0
-92 -1042 0
-93 -1043 0
-94 -1044 0
-95 -1045 0
-91 -1106 0
-92 -1107 0
-93 -1108 0
-94 -1109 0
-95 -1110 0
-91 -1156 0
-92 -1157 0
-93 -1158 0
-94 -1159 0
-95 -1160 0
-91 -1161 0
-92 -1162 0
-93 -1163 0
-94 -1164 0
-95 -1165 0
-96 -391 0
-97 -392 0
-98 -393 0
-99 -394 0
-100 -395 0
-96 -456 0
-97 -457 0
-98 -458 0
-99 -459 0
-100 -460 0
-96 -561 0
-97 -562 0
-98 -563 0
-99 -564 0
-100 -565 0
-96 -791 0
-97 -792 0
-98 -793 0
-99 -794 0
-100 -795 0
-96 -841 0
-97 -842 0
-98 -843 0
-99 -844 0
-100 -845 0
-96 -1041 0
-97 -1042 0
-98 -1043 0
-99 -1044 0
-100 -1045 0
-96 -1066 0
-97 -1067 0
-98 -1068 0
-99 -1069 0
-100 -1070 0
-96 -1121 0
-97 -1122 0
-98 -1123 0
-99 -1124 0
-100 -1125 0
-96 -1176 0
-97 -1177 0
-98 -1178 0
-99 -1179 0
-100 -1180 0
-96 -1181 0
-97 -1182 0
-98 -1183 0
-99 -1184 0
-100 -1185 0
-101 -386 0
-102 -387 0
-103 -388 0
-104 -389 0
-105 -390 0
-101 -441 0
-102 -442 0
-103 -443 0
-104 -444 0
-105 -445 0
-101 -566 0
-102 -567 0
-103 -568 0
-104 -569 0
-105 -570 0
-101 -591 0
-102 -592 0
-103 -593 0
-104 -594 0
-105 -595 0
-101 -736 0
-102 -737 0
-103 -738 0
-104 -739 0
-105 -740 0
-101 -796 0
-102 -797 0
-103 -798 0
-104 -799 0
-105 -800 0
-101 -846 0
-102 -847 0
-103 -848 0
-104 -849 0
-105 -850 0
-101 -1046 0
-102 -1047 0
-103 -1048 0
-104 -1049 0
-105 -1050 0
-101 -1071 0
-102 -1072 0
-103 -1073 0
-104 -1074 0
-105 -1075 0
-101 -1116 0
-102 -1117 0
-103 -1118 0
-104 -1119 0
-105 -1120 0
-101 -1186 0
-102 -1187 0
-103 -1188 0
-104 -1189 0
-105 -1190 0
-101 -1191 0
-102 -1192 0
-103 -1193 0
-104 -1194 0
-105 -1195 0
-106 -411 0
-107 -412 0
-108 -413 0
-109 -414 0
-110 -415 0
-106 -476 0
-107 -477 0
-108 -478 0
-109 -479 0
-110 -480 0
-106 -566 0
-107 -567 0
-108 -568 0
-109 -569 0
-110 -570 0
-106 -586 0
-107 -587 0
-108 -588 0
-109 -589 0
-110 -590 0
-106 -761 0
-107 -762 0
-108 -763 0
-109 -764 0
-110 -765 0
-106 -831 0
-107 -832 0
-108 -833 0
-109 -834 0
-110 -835 0
-106 -1006 0
-107 -1007 0
-108 -1008 0
-109 -1009 0
-110 -1010 0
-106 -1071 0
-107 -1072 0
-108 -1073 0
-109 -1074 0
-110 -1075 0
-106 -1206 0
-107 -1207 0
-108 -1208 0
-109 -1209 0
-110 -1210 0
-106 -1211 0
-107 -1212 0
-108 -1213 0
-109 -1214 0
-110 -1215 0
-111 -406 0
-112 -407 0
-113 -408 0
-114 -409 0
-115 -410 0
-111 -421 0
-112 -422 0
-113 -423 0
-114 -424 0
-115 -425 0
-111 -526 0
-112 -527 0
-113 -528 0
-114 -529 0
-115 -530 0
-111 -541 0
-112 -542 0
-113 -543 0
-114 -544 0
-115 -545 0
-111 -876 0
-112 -877 0
-113 -878 0
-114 -879 0
-115 -880 0
-111 -911 0
-112 -912 0
-113 -913 0
-114 -914 0
-115 -915 0
-111 -1126 0
-112 -1127 0
-113 -1128 0
-114 -1129 0
-115 -1130 0
-116 -416 0
-117 -417 0
-118 -418 0
-119 -419 0
-120 -420 0
-116 -431 0
-117 -432 0
-118 -433 0
-119 -434 0
-120 -435 0
-116 -536 0
-117 -537 0
-118 -538 0
-119 -539 0
-120 -540 0
-116 -551 0
-117 -552 0
-118 -553 0
-119 -554 0
-120 -555 0
-116 -861 0
-117 -862 0
-118 -863 0
-119 -864 0
-120 -865 0
-116 -886 0
-117 -887 0
-118 -888 0
-119 -889 0
-120 -890 0
-116 -1151 0
-117 -1152 0
-118 -1153 0
-119 -1154 0
-120 -1155 0
-121 -381 0
-122 -382 0
-123 -383 0
-124 -384 0
-125 -385 0
-121 -426 0
-122 -427 0
-123 -428 0
-124 -429 0
-125 -430 0
-121 -501 0
-122 -502 0
-123 -503 0
-124 -504 0
-125 -505 0
-121 -546 0
-122 -547 0
-123 -548 0
-124 -549 0
-125 -550 0
-121 -871 0
-122 -872 0
-123 -873 0
-124 -874 0
-125 -875 0
-121 -896 0
-122 -897 0
-123 -898 0
-124 -899 0
-125 -900 0
-121 -1156 0
-122 -1157 0
-123 -1158 0
-124 -1159 0
-125 -1160 0
-126 -391 0
-127 -392 0
-128 -393 0
-129 -394 0
-130 -395 0
-126 -436 0
-127 -437 0
-128 -438 0
-129 -439 0
-130 -440 0
-126 -511 0
-127 -512 0
-128 -513 0
-129 -514 0
-130 -515 0
-126 -556 0
-127 -557 0
-128 -558 0
-129 -559 0
-130 -560 0
-126 -881 0
-127 -882 0
-128 -883 0
-129 -884 0
-130 -885 0
-126 -906 0
-127 -907 0
-128 -908 0
-129 -909 0
-130 -910 0
-126 -1181 0
-127 -1182 0
-128 -1183 0
-129 -1184 0
-130 -1185 0
-131 -386 0
-132 -387 0
-133 -388 0
-134 -389 0
-135 -390 0
-131 -401 0
-132 -402 0
-133 -403 0
-134 -404 0
-135 -405 0
-131 -506 0
-132 -507 0
-133 -508 0
-134 -509 0
-135 -510 0
-131 -521 0
-132 -522 0
-133 -523 0
-134 -524 0
-135 -525 0
-131 -891 0
-132 -892 0
-133 -893 0
-134 -894 0
-135 -895 0
-131 -916 0
-132 -917 0
-133 -918 0
-134 -919 0
-135 -920 0
-131 -1186 0
-132 -1187 0
-133 -1188 0
-134 -1189 0
-135 -1190 0
-136 -396 0
-137 -397 0
-138 -398 0
-139 -399 0
-140 -400 0
-136 -411 0
-137 -412 0
-138 -413 0
-139 -414 0
-140 -415 0
-136 -516 0
-137 -517 0
-138 -518 0
-139 -519 0
-140 -520 0
-136 -531 0
-137 -532 0
-138 -533 0
-139 -534 0
-140 -535 0
-136 -866 0
-137 -867 0
-138 -868 0
-139 -869 0
-140 -870 0
-136 -901 0
-137 -902 0
-138 -903 0
-139 -904 0
-140 -905 0
-136 -1211 0
-137 -1212 0
-138 -1213 0
-139 -1214 0
-140 -1215 0
-141 -306 0
-142 -307 0
-143 -308 0
-144 -309 0
-145 -310 0
-141 -311 0
-142 -312 0
-143 -313 0
-144 -314 0
-145 -315 0
-141 -366 0
-142 -367 0
-143 -368 0
-144 -369 0
-145 -370 0
-141 -401 0
-142 -402 0
-143 -403 0
-144 -404 0
-145 -405 0
-141 -421 0
-142 -422 0
-143 -423 0
-144 -424 0
-145 -425 0
-141 -586 0
-142 -587 0
-143 -588 0
-144 -589 0
-145 -590 0
-141 -686 0
-142 -687 0
-143 -688 0
-144 -689 0
-145 -690 0
-141 -716 0
-142 -717 0
-143 -718 0
-144 -719 0
-145 -720 0
-141 -946 0
-142 -947 0
-143 -948 0
-144 -949 0
-145 -950 0
-141 -986 0
-142 -987 0
-143 -988 0
-144 -989 0
-145 -990 0
-141 -1136 0
-142 -1137 0
-143 -1138 0
-144 -1139 0
-145 -1140 0
-141 -1231 0
-142 -1232 0
-143 -1233 0
-144 -1234 0
-145 -1235 0
-146 -316 0
-147 -317 0
-148 -318 0
-149 -319 0
-150 -320 0
-146 -321 0
-147 -322 0
-148 -323 0
-149 -324 0
-150 -325 0
-146 -406 0
-147 -407 0
-148 -408 0
-149 -409 0
-150 -410 0
-146 -426 0
-147 -427 0
-148 -428 0
-149 -429 0
-150 -430 0
-146 -596 0
-147 -597 0
-148 -598 0
-149 -599 0
-150 -600 0
-146 -691 0
-147 -692 0
-148 -693 0
-149 -694 0
-150 -695 0
-146 -721 0
-147 -722 0
-148 -723 0
-149 -724 0
-150 -725 0
-146 -951 0
-147 -952 0
-148 -953 0
-149 -954 0
-150 -955 0
-146 -991 0
-147 -992 0
-148 -993 0
-149 -994 0
-150 -995 0
-146 -1106 0
-147 -1107 0
-148 -1108 0
-149 -1109 0
-150 -1110 0
-146 -1131 0
-147 -1132 0
-148 -1133 0
-149 -1134 0
-150 -1135 0
-146 -1281 0
-147 -1282 0
-148 -1283 0
-149 -1284 0
-150 -1285 0
-151 -321 0
-152 -322 0
-153 -323 0
-154 -324 0
-155 -325 0
-151 -326 0
-152 -327 0
-153 -328 0
-154 -329 0
-155 -330 0
-151 -411 0
-152 -412 0
-153 -413 0
-154 -414 0
-155 -415 0
-151 -431 0
-152 -432 0
-153 -433 0
-154 -434 0
-155 -435 0
-151 -621 0
-152 -622 0
-153 -623 0
-154 -624 0
-155 -625 0
-151 -696 0
-152 -697 0
-153 -698 0
-154 -699 0
-155 -700 0
-151 -726 0
-152 -727 0
-153 -728 0
-154 -729 0
-155 -730 0
-151 -936 0
-152 -937 0
-153 -938 0
-154 -939 0
-155 -940 0
-151 -956 0
-152 -957 0
-153 -958 0
-154 -959 0
-155 -960 0
-151 -1146 0
-152 -1147 0
-153 -1148 0
-154 -1149 0
-155 -1150 0
-151 -1286 0
-152 -1287 0
-153 -1288 0
-154 -1289 0
-155 -1290 0
-156 -331 0
-157 -332 0
-158 -333 0
-159 -334 0
-160 -335 0
-156 -336 0
-157 -337 0
-158 -338 0
-159 -339 0
-160 -340 0
-156 -371 0
-157 -372 0
-158 -373 0
-159 -374 0
-160 -375 0
-156 -416 0
-157 -417 0
-158 -418 0
-159 -419 0
-160 -420 0
-156 -436 0
-157 -437 0
-158 -438 0
-159 -439 0
-160 -440 0
-156 -671 0
-157 -672 0
-158 -673 0
-159 -674 0
-160 -675 0
-156 -701 0
-157 -702 0
-158 -703 0
-159 -704 0
-160 -705 0
-156 -941 0
-157 -942 0
-158 -943 0
-159 -944 0
-160 -945 0
-156 -961 0
-157 -962 0
-158 -963 0
-159 -964 0
-160 -965 0
-156 -1141 0
-157 -1142 0
-158 -1143 0
-159 -1144 0
-160 -1145 0
-156 -1236 0
-157 -1237 0
-158 -1238 0
-159 -1239 0
-160 -1240 0
-156 -1246 0
-157 -1247 0
-158 -1248 0
-159 -1249 0
-160 -1250 0
-161 -336 0
-162 -337 0
-163 -338 0
-164 -339 0
-165 -340 0
-161 -341 0
-162 -342 0
-163 -343 0
-164 -344 0
-165 -345 0
-161 -376 0
-162 -377 0
-163 -378 0
-164 -379 0
-165 -380 0
-161 -381 0
-162 -382 0
-163 -383 0
-164 -384 0
-165 -385 0
-161 -421 0
-162 -422 0
-163 -423 0
-164 -424 0
-165 -425 0
-161 -606 0
-162 -607 0
-163 -608 0
-164 -609 0
-165 -610 0
-161 -676 0
-162 -677 0
-163 -678 0
-164 -679 0
-165 -680 0
-161 -706 0
-162 -707 0
-163 -708 0
-164 -709 0
-165 -710 0
-161 -946 0
-162 -947 0
-163 -948 0
-164 -949 0
-165 -950 0
-161 -966 0
-162 -967 0
-163 -968 0
-164 -969 0
-165 -970 0
-161 -1166 0
-162 -1167 0
-163 -1168 0
-164 -1169 0
-165 -1170 0
-161 -1241 0
-162 -1242 0
-163 -1243 0
-164 -1244 0
-165 -1245 0
-161 -1251 0
-162 -1252 0
-163 -1253 0
-164 -1254 0
-165 -1255 0
-166 -261 0
-167 -262 0
-168 -263 0
-169 -264 0
-170 -265 0
-166 -346 0
-167 -347 0
-168 -348 0
-169 -349 0
-170 -350 0
-166 -386 0
-167 -387 0
-168 -388 0
-169 -389 0
-170 -390 0
-166 -426 0
-167 -427 0
-168 -428 0
-169 -429 0
-170 -430 0
-166 -616 0
-167 -617 0
-168 -618 0
-169 -619 0
-170 -620 0
-166 -681 0
-167 -682 0
-168 -683 0
-169 -684 0
-170 -685 0
-166 -711 0
-167 -712 0
-168 -713 0
-169 -714 0
-170 -715 0
-166 -951 0
-167 -952 0
-168 -953 0
-169 -954 0
-170 -955 0
-166 -971 0
-167 -972 0
-168 -973 0
-169 -974 0
-170 -975 0
-166 -1116 0
-167 -1117 0
-168 -1118 0
-169 -1119 0
-170 -1120 0
-166 -1161 0
-167 -1162 0
-168 -1163 0
-169 -1164 0
-170 -1165 0
-166 -1291 0
-167 -1292 0
-168 -1293 0
-169 -1294 0
-170 -1295 0
-171 -261 0
-172 -262 0
-173 -263 0
-174 -264 0
-175 -265 0
-171 -266 0
-172 -267 0
-173 -268 0
-174 -269 0
-175 -270 0
-171 -391 0
-172 -392 0
-173 -393 0
-174 -394 0
-175 -395 0
-171 -431 0
-172 -432 0
-173 -433 0
-174 -434 0
-175 -435 0
-171 -581 0
-172 -582 0
-173 -583 0
-174 -584 0
-175 -585 0
-171 -686 0
-172 -687 0
-173 -688 0
-174 -689 0
-175 -690 0
-171 -716 0
-172 -717 0
-173 -718 0
-174 -719 0
-175 -720 0
-171 -956 0
-172 -957 0
-173 -958 0
-174 -959 0
-175 -960 0
-171 -976 0
-172 -977 0
-173 -978 0
-174 -979 0
-175 -980 0
-171 -1111 0
-172 -1112 0
-173 -1113 0
-174 -1114 0
-175 -1115 0
-171 -1176 0
-172 -1177 0
-173 -1178 0
-174 -1179 0
-175 -1180 0
-171 -1296 0
-172 -1297 0
-173 -1298 0
-174 -1299 0
-175 -1300 0
-176 -271 0
-177 -272 0
-178 -273 0
-179 -274 0
-180 -275 0
-176 -276 0
-177 -277 0
-178 -278 0
-179 -279 0
-180 -280 0
-176 -351 0
-177 -352 0
-178 -353 0
-179 -354 0
-180 -355 0
-176 -396 0
-177 -397 0
-178 -398 0
-179 -399 0
-180 -400 0
-176 -436 0
-177 -437 0
-178 -438 0
-179 -439 0
-180 -440 0
-176 -591 0
-177 -592 0
-178 -593 0
-179 -594 0
-180 -595 0
-176 -691 0
-177 -692 0
-178 -693 0
-179 -694 0
-180 -695 0
-176 -721 0
-177 -722 0
-178 -723 0
-179 -724 0
-180 -725 0
-176 -961 0
-177 -962 0
-178 -963 0
-179 -964 0
-180 -965 0
-176 -981 0
-177 -982 0
-178 -983 0
-179 -984 0
-180 -985 0
-176 -1171 0
-177 -1172 0
-178 -1173 0
-179 -1174 0
-180 -1175 0
-176 -1256 0
-177 -1257 0
-178 -1258 0
-179 -1259 0
-180 -1260 0
-176 -1266 0
-177 -1267 0
-178 -1268 0
-179 -1269 0
-180 -1270 0
-181 -276 0
-182 -277 0
-183 -278 0
-184 -279 0
-185 -280 0
-181 -281 0
-182 -282 0
-183 -283 0
-184 -284 0
-185 -285 0
-181 -356 0
-182 -357 0
-183 -358 0
-184 -359 0
-185 -360 0
-181 -381 0
-182 -382 0
-183 -383 0
-184 -384 0
-185 -385 0
-181 -401 0
-182 -402 0
-183 -403 0
-184 -404 0
-185 -405 0
-181 -696 0
-182 -697 0
-183 -698 0
-184 -699 0
-185 -700 0
-181 -726 0
-182 -727 0
-183 -728 0
-184 -729 0
-185 -730 0
-181 -966 0
-182 -967 0
-183 -968 0
-184 -969 0
-185 -970 0
-181 -986 0
-182 -987 0
-183 -988 0
-184 -989 0
-185 -990 0
-181 -1196 0
-182 -1197 0
-183 -1198 0
-184 -1199 0
-185 -1200 0
-181 -1261 0
-182 -1262 0
-183 -1263 0
-184 -1264 0
-185 -1265 0
-181 -1271 0
-182 -1272 0
-183 -1273 0
-184 -1274 0
-185 -1275 0
-186 -286 0
-187 -287 0
-188 -288 0
-189 -289 0
-190 -290 0
-186 -291 0
-187 -292 0
-188 -293 0
-189 -294 0
-190 -295 0
-186 -386 0
-187 -387 0
-188 -388 0
-189 -389 0
-190 -390 0
-186 -406 0
-187 -407 0
-188 -408 0
-189 -409 0
-190 -410 0
-186 -576 0
-187 -577 0
-188 -578 0
-189 -579 0
-190 -580 0
-186 -671 0
-187 -672 0
-188 -673 0
-189 -674 0
-190 -675 0
-186 -701 0
-187 -702 0
-188 -703 0
-189 -704 0
-190 -705 0
-186 -971 0
-187 -972 0
-188 -973 0
-189 -974 0
-190 -975 0
-186 -991 0
-187 -992 0
-188 -993 0
-189 -994 0
-190 -995 0
-186 -1191 0
-187 -1192 0
-188 -1193 0
-189 -1194 0
-190 -1195 0
-186 -1301 0
-187 -1302 0
-188 -1303 0
-189 -1304 0
-190 -1305 0
-191 -291 0
-192 -292 0
-193 -293 0
-194 -294 0
-195 -295 0
-191 -296 0
-192 -297 0
-193 -298 0
-194 -299 0
-195 -300 0
-191 -391 0
-192 -392 0
-193 -393 0
-194 -394 0
-195 -395 0
-191 -411 0
-192 -412 0
-193 -413 0
-194 -414 0
-195 -415 0
-191 -601 0
-192 -602 0
-193 -603 0
-194 -604 0
-195 -605 0
-191 -676 0
-192 -677 0
-193 -678 0
-194 -679 0
-195 -680 0
-191 -706 0
-192 -707 0
-193 -708 0
-194 -709 0
-195 -710 0
-191 -936 0
-192 -937 0
-193 -938 0
-194 -939 0
-195 -940 0
-191 -976 0
-192 -977 0
-193 -978 0
-194 -979 0
-195 -980 0
-191 -1121 0
-192 -1122 0
-193 -1123 0
-194 -1124 0
-195 -1125 0
-191 -1206 0
-192 -1207 0
-193 -1208 0
-194 -1209 0
-195 -1210 0
-191 -1306 0
-192 -1307 0
-193 -1308 0
-194 -1309 0
-195 -1310 0
-196 -301 0
-197 -302 0
-198 -303 0
-199 -304 0
-200 -305 0
-196 -306 0
-197 -307 0
-198 -308 0
-199 -309 0
-200 -310 0
-196 -361 0
-197 -362 0
-198 -363 0
-199 -364 0
-200 -365 0
-196 -396 0
-197 -397 0
-198 -398 0
-199 -399 0
-200 -400 0
-196 -416 0
-197 -417 0
-198 -418 0
-199 -419 0
-200 -420 0
-196 -611 0
-197 -612 0
-198 -613 0
-199 -614 0
-200 -615 0
-196 -681 0
-197 -682 0
-198 -683 0
-199 -684 0
-200 -685 0
-196 -711 0
-197 -712 0
-198 -713 0
-199 -714 0
-200 -715 0
-196 -941 0
-197 -942 0
-198 -943 0
-199 -944 0
-200 -945 0
-196 -981 0
-197 -982 0
-198 -983 0
-199 -984 0
-200 -985 0
-196 -1201 0
-197 -1202 0
-198 -1203 0
-199 -1204 0
-200 -1205 0
-196 -1276 0
-197 -1277 0
-198 -1278 0
-199 -1279 0
-200 -1280 0
-201 -306 0
-202 -307 0
-203 -308 0
-204 -309 0
-205 -310 0
-201 -321 0
-202 -322 0
-203 -323 0
-204 -324 0
-205 -325 0
-201 -371 0
-202 -372 0
-203 -373 0
-204 -374 0
-205 -375 0
-201 -481 0
-202 -482 0
-203 -483 0
-204 -484 0
-205 -485 0
-201 -771 0
-202 -772 0
-203 -773 0
-204 -774 0
-205 -775 0
-201 -841 0
-202 -842 0
-203 -843 0
-204 -844 0
-205 -845 0
-201 -876 0
-202 -877 0
-203 -878 0
-204 -879 0
-205 -880 0
-201 -911 0
-202 -912 0
-203 -913 0
-204 -914 0
-205 -915 0
-201 -1141 0
-202 -1142 0
-203 -1143 0
-204 -1144 0
-205 -1145 0
-201 -1206 0
-202 -1207 0
-203 -1208 0
-204 -1209 0
-205 -1210 0
-201 -1216 0
-202 -1217 0
-203 -1218 0
-204 -1219 0
-205 -1220 0
-201 -1311 0
-202 -1312 0
-203 -1313 0
-204 -1314 0
-205 -1315 0
-206 -311 0
-207 -312 0
-208 -313 0
-209 -314 0
-210 -315 0
-206 -326 0
-207 -327 0
-208 -328 0
-209 -329 0
-210 -330 0
-206 -461 0
-207 -462 0
-208 -463 0
-209 -464 0
-210 -465 0
-206 -486 0
-207 -487 0
-208 -488 0
-209 -489 0
-210 -490 0
-206 -781 0
-207 -782 0
-208 -783 0
-209 -784 0
-210 -785 0
-206 -846 0
-207 -847 0
-208 -848 0
-209 -849 0
-210 -850 0
-206 -916 0
-207 -917 0
-208 -918 0
-209 -919 0
-210 -920 0
-206 -1126 0
-207 -1127 0
-208 -1128 0
-209 -1129 0
-210 -1130 0
-206 -1231 0
-207 -1232 0
-208 -1233 0
-209 -1234 0
-210 -1235 0
-206 -1286 0
-207 -1287 0
-208 -1288 0
-209 -1289 0
-210 -1290 0
-206 -1316 0
-207 -1317 0
-208 -1318 0
-209 -1319 0
-210 -1320 0
-211 -316 0
-212 -317 0
-213 -318 0
-214 -319 0
-215 -320 0
-211 -331 0
-212 -332 0
-213 -333 0
-214 -334 0
-215 -335 0
-211 -471 0
-212 -472 0
-213 -473 0
-214 -474 0
-215 -475 0
-211 -496 0
-212 -497 0
-213 -498 0
-214 -499 0
-215 -500 0
-211 -791 0
-212 -792 0
-213 -793 0
-214 -794 0
-215 -795 0
-211 -856 0
-212 -857 0
-213 -858 0
-214 -859 0
-215 -860 0
-211 -881 0
-212 -882 0
-213 -883 0
-214 -884 0
-215 -885 0
-211 -1151 0
-212 -1152 0
-213 -1153 0
-214 -1154 0
-215 -1155 0
-211 -1236 0
-212 -1237 0
-213 -1238 0
-214 -1239 0
-215 -1240 0
-211 -1281 0
-212 -1282 0
-213 -1283 0
-214 -1284 0
-215 -1285 0
-211 -1321 0
-212 -1322 0
-213 -1323 0
-214 -1324 0
-215 -1325 0
-216 -321 0
-217 -322 0
-218 -323 0
-219 -324 0
-220 -325 0
-216 -336 0
-217 -337 0
-218 -338 0
-219 -339 0
-220 -340 0
-216 -366 0
-217 -367 0
-218 -368 0
-219 -369 0
-220 -370 0
-216 -476 0
-217 -477 0
-218 -478 0
-219 -479 0
-220 -480 0
-216 -746 0
-217 -747 0
-218 -748 0
-219 -749 0
-220 -750 0
-216 -796 0
-217 -797 0
-218 -798 0
-219 -799 0
-220 -800 0
-216 -861 0
-217 -862 0
-218 -863 0
-219 -864 0
-220 -865 0
-216 -886 0
-217 -887 0
-218 -888 0
-219 -889 0
-220 -890 0
-216 -1136 0
-217 -1137 0
-218 -1138 0
-219 -1139 0
-220 -1140 0
-216 -1161 0
-217 -1162 0
-218 -1163 0
-219 -1164 0
-220 -1165 0
-216 -1216 0
-217 -1217 0
-218 -1218 0
-219 -1219 0
-220 -1220 0
-216 -1241 0
-217 -1242 0
-218 -1243 0
-219 -1244 0
-220 -1245 0
-216 -1326 0
-217 -1327 0
-218 -1328 0
-219 -1329 0
-220 -1330 0
-221 -261 0
-222 -262 0
-223 -263 0
-224 -264 0
-225 -265 0
-221 -336 0
-222 -337 0
-223 -338 0
-224 -339 0
-225 -340 0
-221 -351 0
-222 -352 0
-223 -353 0
-224 -354 0
-225 -355 0
-221 -441 0
-222 -442 0
-223 -443 0
-224 -444 0
-225 -445 0
-221 -761 0
-222 -762 0
-223 -763 0
-224 -764 0
-225 -765 0
-221 -811 0
-222 -812 0
-223 -813 0
-224 -814 0
-225 -815 0
-221 -871 0
-222 -872 0
-223 -873 0
-224 -874 0
-225 -875 0
-221 -896 0
-222 -897 0
-223 -898 0
-224 -899 0
-225 -900 0
-221 -1146 0
-222 -1147 0
-223 -1148 0
-224 -1149 0
-225 -1150 0
-221 -1171 0
-222 -1172 0
-223 -1173 0
-224 -1174 0
-225 -1175 0
-221 -1221 0
-222 -1222 0
-223 -1223 0
-224 -1224 0
-225 -1225 0
-221 -1246 0
-222 -1247 0
-223 -1248 0
-224 -1249 0
-225 -1250 0
-221 -1331 0
-222 -1332 0
-223 -1333 0
-224 -1334 0
-225 -1335 0
-226 -266 0
-227 -267 0
-228 -268 0
-229 -269 0
-230 -270 0
-226 -341 0
-227 -342 0
-228 -343 0
-229 -344 0
-230 -345 0
-226 -446 0
-227 -447 0
-228 -448 0
-229 -449 0
-230 -450 0
-226 -481 0
-227 -482 0
-228 -483 0
-229 -484 0
-230 -485 0
-226 -766 0
-227 -767 0
-228 -768 0
-229 -769 0
-230 -770 0
-226 -821 0
-227 -822 0
-228 -823 0
-229 -824 0
-230 -825 0
-226 -876 0
-227 -877 0
-228 -878 0
-229 -879 0
-230 -880 0
-226 -1156 0
-227 -1157 0
-228 -1158 0
-229 -1159 0
-230 -1160 0
-226 -1251 0
-227 -1252 0
-228 -1253 0
-229 -1254 0
-230 -1255 0
-226 -1296 0
-227 -1297 0
-228 -1298 0
-229 -1299 0
-230 -1300 0
-226 -1336 0
-227 -1337 0
-228 -1338 0
-229 -1339 0
-230 -1340 0
-231 -271 0
-232 -272 0
-233 -273 0
-234 -274 0
-235 -275 0
-231 -346 0
-232 -347 0
-233 -348 0
-234 -349 0
-235 -350 0
-231 -456 0
-232 -457 0
-233 -458 0
-234 -459 0
-235 -460 0
-231 -491 0
-232 -492 0
-233 -493 0
-234 -494 0
-235 -495 0
-231 -776 0
-232 -777 0
-233 -778 0
-234 -779 0
-235 -780 0
-231 -831 0
-232 -832 0
-233 -833 0
-234 -834 0
-235 -835 0
-231 -901 0
-232 -902 0
-233 -903 0
-234 -904 0
-235 -905 0
-231 -1181 0
-232 -1182 0
-233 -1183 0
-234 -1184 0
-235 -1185 0
-231 -1256 0
-232 -1257 0
-233 -1258 0
-234 -1259 0
-235 -1260 0
-231 -1291 0
-232 -1292 0
-233 -1293 0
-234 -1294 0
-235 -1295 0
-231 -1341 0
-232 -1342 0
-233 -1343 0
-234 -1344 0
-235 -1345 0
-236 -261 0
-237 -262 0
-238 -263 0
-239 -264 0
-240 -265 0
-236 -276 0
-237 -277 0
-238 -278 0
-239 -279 0
-240 -280 0
-236 -376 0
-237 -377 0
-238 -378 0
-239 -379 0
-240 -380 0
-236 -496 0
-237 -497 0
-238 -498 0
-239 -499 0
-240 -500 0
-236 -786 0
-237 -787 0
-238 -788 0
-239 -789 0
-240 -790 0
-236 -836 0
-237 -837 0
-238 -838 0
-239 -839 0
-240 -840 0
-236 -881 0
-237 -882 0
-238 -883 0
-239 -884 0
-240 -885 0
-236 -906 0
-237 -907 0
-238 -908 0
-239 -909 0
-240 -910 0
-236 -1166 0
-237 -1167 0
-238 -1168 0
-239 -1169 0
-240 -1170 0
-236 -1191 0
-237 -1192 0
-238 -1193 0
-239 -1194 0
-240 -1195 0
-236 -1221 0
-237 -1222 0
-238 -1223 0
-239 -1224 0
-240 -1225 0
-236 -1261 0
-237 -1262 0
-238 -1263 0
-239 -1264 0
-240 -1265 0
-236 -1346 0
-237 -1347 0
-238 -1348 0
-239 -1349 0
-240 -1350 0
-241 -276 0
-242 -277 0
-243 -278 0
-244 -279 0
-245 -280 0
-241 -291 0
-242 -292 0
-243 -293 0
-244 -294 0
-245 -295 0
-241 -361 0
-242 -362 0
-243 -363 0
-244 -364 0
-245 -365 0
-241 -461 0
-242 -462 0
-243 -463 0
-244 -464 0
-245 -465 0
-241 -801 0
-242 -802 0
-243 -803 0
-244 -804 0
-245 -805 0
-241 -851 0
-242 -852 0
-243 -853 0
-244 -854 0
-245 -855 0
-241 -891 0
-242 -892 0
-243 -893 0
-244 -894 0
-245 -895 0
-241 -916 0
-242 -917 0
-243 -918 0
-244 -919 0
-245 -920 0
-241 -1176 0
-242 -1177 0
-243 -1178 0
-244 -1179 0
-245 -1180 0
-241 -1201 0
-242 -1202 0
-243 -1203 0
-244 -1204 0
-245 -1205 0
-241 -1226 0
-242 -1227 0
-243 -1228 0
-244 -1229 0
-245 -1230 0
-241 -1266 0
-242 -1267 0
-243 -1268 0
-244 -1269 0
-245 -1270 0
-241 -1351 0
-242 -1352 0
-243 -1353 0
-244 -1354 0
-245 -1355 0
-246 -281 0
-247 -282 0
-248 -283 0
-249 -284 0
-250 -285 0
-246 -296 0
-247 -297 0
-248 -298 0
-249 -299 0
-250 -300 0
-246 -441 0
-247 -442 0
-248 -443 0
-249 -444 0
-250 -445 0
-246 -466 0
-247 -467 0
-248 -468 0
-249 -469 0
-250 -470 0
-246 -741 0
-247 -742 0
-248 -743 0
-249 -744 0
-250 -745 0
-246 -806 0
-247 -807 0
-248 -808 0
-249 -809 0
-250 -810 0
-246 -896 0
-247 -897 0
-248 -898 0
-249 -899 0
-250 -900 0
-246 -1186 0
-247 -1187 0
-248 -1188 0
-249 -1189 0
-250 -1190 0
-246 -1271 0
-247 -1272 0
-248 -1273 0
-249 -1274 0
-250 -1275 0
-246 -1306 0
-247 -1307 0
-248 -1308 0
-249 -1309 0
-250 -1310 0
-246 -1356 0
-247 -1357 0
-248 -1358 0
-249 -1359 0
-250 -1360 0
-251 -286 0
-252 -287 0
-253 -288 0
-254 -289 0
-255 -290 0
-251 -301 0
-252 -302 0
-253 -303 0
-254 -304 0
-255 -305 0
-251 -451 0
-252 -452 0
-253 -453 0
-254 -454 0
-255 -455 0
-251 -476 0
-252 -477 0
-253 -478 0
-254 -479 0
-255 -480 0
-251 -751 0
-252 -752 0
-253 -753 0
-254 -754 0
-255 -755 0
-251 -816 0
-252 -817 0
-253 -818 0
-254 -819 0
-255 -820 0
-251 -861 0
-252 -862 0
-253 -863 0
-254 -864 0
-255 -865 0
-251 -1211 0
-252 -1212 0
-253 -1213 0
-254 -1214 0
-255 -1215 0
-251 -1276 0
-252 -1277 0
-253 -1278 0
-254 -1279 0
-255 -1280 0
-251 -1301 0
-252 -1302 0
-253 -1303 0
-254 -1304 0
-255 -1305 0
-251 -1361 0
-252 -1362 0
-253 -1363 0
-254 -1364 0
-255 -1365 0
-256 -291 0
-257 -292 0
-258 -293 0
-259 -294 0
-260 -295 0
-256 -306 0
-257 -307 0
-258 -308 0
-259 -309 0
-260 -310 0
-256 -356 0
-257 -357 0
-258 -358 0
-259 -359 0
-260 -360 0
-256 -456 0
-257 -457 0
-258 -458 0
-259 -459 0
-260 -460 0
-256 -756 0
-257 -757 0
-258 -758 0
-259 -759 0
-260 -760 0
-256 -826 0
-257 -827 0
-258 -828 0
-259 -829 0
-260 -830 0
-256 -866 0
-257 -867 0
-258 -868 0
-259 -869 0
-260 -870 0
-256 -901 0
-257 -902 0
-258 -903 0
-259 -904 0
-260 -905 0
-256 -1131 0
-257 -1132 0
-258 -1133 0
-259 -1134 0
-260 -1135 0
-256 -1196 0
-257 -1197 0
-258 -1198 0
-259 -1199 0
-260 -1200 0
-256 -1226 0
-257 -1227 0
-258 -1228 0
-259 -1229 0
-260 -1230 0
-256 -1366 0
-257 -1367 0
-258 -1368 0
-259 -1369 0
-260 -1370 0
-261 -291 0
-262 -292 0
-263 -293 0
-264 -294 0
-265 -295 0
-261 -321 0
-262 -322 0
-263 -323 0
-264 -324 0
-265 -325 0
-261 -581 0
-262 -582 0
-263 -583 0
-264 -584 0
-265 -585 0
-261 -616 0
-262 -617 0
-263 -618 0
-264 -619 0
-265 -620 0
-261 -681 0
-262 -682 0
-263 -683 0
-264 -684 0
-265 -685 0
-261 -716 0
-262 -717 0
-263 -718 0
-264 -719 0
-265 -720 0
-261 -761 0
-262 -762 0
-263 -763 0
-264 -764 0
-265 -765 0
-261 -836 0
-262 -837 0
-263 -838 0
-264 -839 0
-265 -840 0
-261 -1011 0
-262 -1012 0
-263 -1013 0
-264 -1014 0
-265 -1015 0
-261 -1071 0
-262 -1072 0
-263 -1073 0
-264 -1074 0
-265 -1075 0
-261 -1136 0
-262 -1137 0
-263 -1138 0
-264 -1139 0
-265 -1140 0
-261 -1201 0
-262 -1202 0
-263 -1203 0
-264 -1204 0
-265 -1205 0
-261 -1311 0
-262 -1312 0
-263 -1313 0
-264 -1314 0
-265 -1315 0
-261 -1366 0
-262 -1367 0
-263 -1368 0
-264 -1369 0
-265 -1370 0
-261 -1371 0
-262 -1372 0
-263 -1373 0
-264 -1374 0
-265 -1375 0
-261 -1426 0
-262 -1427 0
-263 -1428 0
-264 -1429 0
-265 -1430 0
-261 -1431 0
-262 -1432 0
-263 -1433 0
-264 -1434 0
-265 -1435 0
-261 -1486 0
-262 -1487 0
-263 -1488 0
-264 -1489 0
-265 -1490 0
-266 -296 0
-267 -297 0
-268 -298 0
-269 -299 0
-270 -300 0
-266 -326 0
-267 -327 0
-268 -328 0
-269 -329 0
-270 -330 0
-266 -481 0
-267 -482 0
-268 -483 0
-269 -484 0
-270 -485 0
-266 -686 0
-267 -687 0
-268 -688 0
-269 -689 0
-270 -690 0
-266 -766 0
-267 -767 0
-268 -768 0
-269 -769 0
-270 -770 0
-266 -1016 0
-267 -1017 0
-268 -1018 0
-269 -1019 0
-270 -1020 0
-266 -1076 0
-267 -1077 0
-268 -1078 0
-269 -1079 0
-270 -1080 0
-266 -1316 0
-267 -1317 0
-268 -1318 0
-269 -1319 0
-270 -1320 0
-266 -1431 0
-267 -1432 0
-268 -1433 0
-269 -1434 0
-270 -1435 0
-271 -301 0
-272 -302 0
-273 -303 0
-274 -304 0
-275 -305 0
-271 -331 0
-272 -332 0
-273 -333 0
-274 -334 0
-275 -335 0
-271 -491 0
-272 -492 0
-273 -493 0
-274 -494 0
-275 -495 0
-271 -591 0
-272 -592 0
-273 -593 0
-274 -594 0
-275 -595 0
-271 -721 0
-272 -722 0
-273 -723 0
-274 -724 0
-275 -725 0
-271 -776 0
-272 -777 0
-273 -778 0
-274 -779 0
-275 -780 0
-271 -846 0
-272 -847 0
-273 -848 0
-274 -849 0
-275 -850 0
-271 -1021 0
-272 -1022 0
-273 -1023 0
-274 -1024 0
-275 -1025 0
-271 -1081 0
-272 -1082 0
-273 -1083 0
-274 -1084 0
-275 -1085 0
-271 -1211 0
-272 -1212 0
-273 -1213 0
-274 -1214 0
-275 -1215 0
-271 -1321 0
-272 -1322 0
-273 -1323 0
-274 -1324 0
-275 -1325 0
-271 -1436 0
-272 -1437 0
-273 -1438 0
-274 -1439 0
-275 -1440 0
-276 -306 0
-277 -307 0
-278 -308 0
-279 -309 0
-280 -310 0
-276 -336 0
-277 -337 0
-278 -338 0
-279 -339 0
-280 -340 0
-276 -461 0
-277 -462 0
-278 -463 0
-279 -464 0
-280 -465 0
-276 -496 0
-277 -497 0
-278 -498 0
-279 -499 0
-280 -500 0
-276 -691 0
-277 -692 0
-278 -693 0
-279 -694 0
-280 -695 0
-276 -726 0
-277 -727 0
-278 -728 0
-279 -729 0
-280 -730 0
-276 -786 0
-277 -787 0
-278 -788 0
-279 -789 0
-280 -790 0
-276 -851 0
-277 -852 0
-278 -853 0
-279 -854 0
-280 -855 0
-276 -996 0
-277 -997 0
-278 -998 0
-279 -999 0
-280 -1000 0
-276 -1026 0
-277 -1027 0
-278 -1028 0
-279 -1029 0
-280 -1030 0
-276 -1131 0
-277 -1132 0
-278 -1133 0
-279 -1134 0
-280 -1135 0
-276 -1146 0
-277 -1147 0
-278 -1148 0
-279 -1149 0
-280 -1150 0
-276 -1231 0
-277 -1232 0
-278 -1233 0
-279 -1234 0
-280 -1235 0
-276 -1236 0
-277 -1237 0
-278 -1238 0
-279 -1239 0
-280 -1240 0
-276 -1311 0
-277 -1312 0
-278 -1313 0
-279 -1314 0
-280 -1315 0
-276 -1326 0
-277 -1327 0
-278 -1328 0
-279 -1329 0
-280 -1330 0
-276 -1376 0
-277 -1377 0
-278 -1378 0
-279 -1379 0
-280 -1380 0
-276 -1381 0
-277 -1382 0
-278 -1383 0
-279 -1384 0
-280 -1385 0
-281 -311 0
-282 -312 0
-283 -313 0
-284 -314 0
-285 -315 0
-281 -341 0
-282 -342 0
-283 -343 0
-284 -344 0
-285 -345 0
-281 -466 0
-282 -467 0
-283 -468 0
-284 -469 0
-285 -470 0
-281 -696 0
-282 -697 0
-283 -698 0
-284 -699 0
-285 -700 0
-281 -741 0
-282 -742 0
-283 -743 0
-284 -744 0
-285 -745 0
-281 -791 0
-282 -792 0
-283 -793 0
-284 -794 0
-285 -795 0
-281 -1001 0
-282 -1002 0
-283 -1003 0
-284 -1004 0
-285 -1005 0
-281 -1031 0
-282 -1032 0
-283 -1033 0
-284 -1034 0
-285 -1035 0
-281 -1156 0
-282 -1157 0
-283 -1158 0
-284 -1159 0
-285 -1160 0
-281 -1241 0
-282 -1242 0
-283 -1243 0
-284 -1244 0
-285 -1245 0
-281 -1316 0
-282 -1317 0
-283 -1318 0
-284 -1319 0
-285 -1320 0
-281 -1441 0
-282 -1442 0
-283 -1443 0
-284 -1444 0
-285 -1445 0
-286 -316 0
-287 -317 0
-288 -318 0
-289 -319 0
-290 -320 0
-286 -346 0
-287 -347 0
-288 -348 0
-289 -349 0
-290 -350 0
-286 -476 0
-287 -477 0
-288 -478 0
-289 -479 0
-290 -480 0
-286 -671 0
-287 -672 0
-288 -673 0
-289 -674 0
-290 -675 0
-286 -751 0
-287 -752 0
-288 -753 0
-289 -754 0
-290 -755 0
-286 -1006 0
-287 -1007 0
-288 -1008 0
-289 -1009 0
-290 -1010 0
-286 -1036 0
-287 -1037 0
-288 -1038 0
-289 -1039 0
-290 -1040 0
-286 -1321 0
-287 -1322 0
-288 -1323 0
-289 -1324 0
-290 -1325 0
-286 -1446 0
-287 -1447 0
-288 -1448 0
-289 -1449 0
-290 -1450 0
-291 -321 0
-292 -322 0
-293 -323 0
-294 -324 0
-295 -325 0
-291 -576 0
-292 -577 0
-293 -578 0
-294 -579 0
-295 -580 0
-291 -601 0
-292 -602 0
-293 -603 0
-294 -604 0
-295 -605 0
-291 -676 0
-292 -677 0
-293 -678 0
-294 -679 0
-295 -680 0
-291 -701 0
-292 -702 0
-293 -703 0
-294 -704 0
-295 -705 0
-291 -756 0
-292 -757 0
-293 -758 0
-294 -759 0
-295 -760 0
-291 -801 0
-292 -802 0
-293 -803 0
-294 -804 0
-295 -805 0
-291 -1011 0
-292 -1012 0
-293 -1013 0
-294 -1014 0
-295 -1015 0
-291 -1041 0
-292 -1042 0
-293 -1043 0
-294 -1044 0
-295 -1045 0
-291 -1141 0
-292 -1142 0
-293 -1143 0
-294 -1144 0
-295 -1145 0
-291 -1166 0
-292 -1167 0
-293 -1168 0
-294 -1169 0
-295 -1170 0
-291 -1326 0
-292 -1327 0
-293 -1328 0
-294 -1329 0
-295 -1330 0
-291 -1331 0
-292 -1332 0
-293 -1333 0
-294 -1334 0
-295 -1335 0
-291 -1386 0
-292 -1387 0
-293 -1388 0
-294 -1389 0
-295 -1390 0
-291 -1391 0
-292 -1392 0
-293 -1393 0
-294 -1394 0
-295 -1395 0
-291 -1446 0
-292 -1447 0
-293 -1448 0
-294 -1449 0
-295 -1450 0
-291 -1451 0
-292 -1452 0
-293 -1453 0
-294 -1454 0
-295 -1455 0
-296 -326 0
-297 -327 0
-298 -328 0
-299 -329 0
-300 -330 0
-296 -441 0
-297 -442 0
-298 -443 0
-299 -444 0
-300 -445 0
-296 -706 0
-297 -707 0
-298 -708 0
-299 -709 0
-300 -710 0
-296 -806 0
-297 -807 0
-298 -808 0
-299 -809 0
-300 -810 0
-296 -1016 0
-297 -1017 0
-298 -1018 0
-299 -1019 0
-300 -1020 0
-296 -1046 0
-297 -1047 0
-298 -1048 0
-299 -1049 0
-300 -1050 0
-296 -1336 0
-297 -1337 0
-298 -1338 0
-299 -1339 0
-300 -1340 0
-296 -1451 0
-297 -1452 0
-298 -1453 0
-299 -1454 0
-300 -1455 0
-301 -331 0
-302 -332 0
-303 -333 0
-304 -334 0
-305 -335 0
-301 -451 0
-302 -452 0
-303 -453 0
-304 -454 0
-305 -455 0
-301 -611 0
-302 -612 0
-303 -613 0
-304 -614 0
-305 -615 0
-301 -681 0
-302 -682 0
-303 -683 0
-304 -684 0
-305 -685 0
-301 -766 0
-302 -767 0
-303 -768 0
-304 -769 0
-305 -770 0
-301 -816 0
-302 -817 0
-303 -818 0
-304 -819 0
-305 -820 0
-301 -1021 0
-302 -1022 0
-303 -1023 0
-304 -1024 0
-305 -1025 0
-301 -1051 0
-302 -1052 0
-303 -1053 0
-304 -1054 0
-305 -1055 0
-301 -1151 0
-302 -1152 0
-303 -1153 0
-304 -1154 0
-305 -1155 0
-301 -1246 0
-302 -1247 0
-303 -1248 0
-304 -1249 0
-305 -1250 0
-301 -1341 0
-302 -1342 0
-303 -1343 0
-304 -1344 0
-305 -1345 0
-301 -1456 0
-302 -1457 0
-303 -1458 0
-304 -1459 0
-305 -1460 0
-306 -336 0
-307 -337 0
-308 -338 0
-309 -339 0
-310 -340 0
-306 -456 0
-307 -457 0
-308 -458 0
-309 -459 0
-310 -460 0
-306 -481 0
-307 -482 0
-308 -483 0
-309 -484 0
-310 -485 0
-306 -686 0
-307 -687 0
-308 -688 0
-309 -689 0
-310 -690 0
-306 -711 0
-307 -712 0
-308 -713 0
-309 -714 0
-310 -715 0
-306 -771 0
-307 -772 0
-308 -773 0
-309 -774 0
-310 -775 0
-306 -826 0
-307 -827 0
-308 -828 0
-309 -829 0
-310 -830 0
-306 -1026 0
-307 -1027 0
-308 -1028 0
-309 -1029 0
-310 -1030 0
-306 -1056 0
-307 -1057 0
-308 -1058 0
-309 -1059 0
-310 -1060 0
-306 -1161 0
-307 -1162 0
-308 -1163 0
-309 -1164 0
-310 -1165 0
-306 -1176 0
-307 -1177 0
-308 -1178 0
-309 -1179 0
-310 -1180 0
-306 -1251 0
-307 -1252 0
-308 -1253 0
-309 -1254 0
-310 -1255 0
-306 -1256 0
-307 -1257 0
-308 -1258 0
-309 -1259 0
-310 -1260 0
-306 -1331 0
-307 -1332 0
-308 -1333 0
-309 -1334 0
-310 -1335 0
-306 -1346 0
-307 -1347 0
-308 -1348 0
-309 -1349 0
-310 -1350 0
-306 -1396 0
-307 -1397 0
-308 -1398 0
-309 -1399 0
-310 -1400 0
-306 -1401 0
-307 -1402 0
-308 -1403 0
-309 -1404 0
-310 -1405 0
-311 -341 0
-312 -342 0
-313 -343 0
-314 -344 0
-315 -345 0
-311 -486 0
-312 -487 0
-313 -488 0
-314 -489 0
-315 -490 0
-311 -586 0
-312 -587 0
-313 -588 0
-314 -589 0
-315 -590 0
-311 -716 0
-312 -717 0
-313 -718 0
-314 -719 0
-315 -720 0
-311 -781 0
-312 -782 0
-313 -783 0
-314 -784 0
-315 -785 0
-311 -831 0
-312 -832 0
-313 -833 0
-314 -834 0
-315 -835 0
-311 -1031 0
-312 -1032 0
-313 -1033 0
-314 -1034 0
-315 -1035 0
-311 -1061 0
-312 -1062 0
-313 -1063 0
-314 -1064 0
-315 -1065 0
-311 -1186 0
-312 -1187 0
-313 -1188 0
-314 -1189 0
-315 -1190 0
-311 -1261 0
-312 -1262 0
-313 -1263 0
-314 -1264 0
-315 -1265 0
-311 -1336 0
-312 -1337 0
-313 -1338 0
-314 -1339 0
-315 -1340 0
-311 -1461 0
-312 -1462 0
-313 -1463 0
-314 -1464 0
-315 -1465 0
-316 -346 0
-317 -347 0
-318 -348 0
-319 -349 0
-320 -350 0
-316 -496 0
-317 -497 0
-318 -498 0
-319 -499 0
-320 -500 0
-316 -691 0
-317 -692 0
-318 -693 0
-319 -694 0
-320 -695 0
-316 -791 0
-317 -792 0
-318 -793 0
-319 -794 0
-320 -795 0
-316 -1036 0
-317 -1037 0
-318 -1038 0
-319 -1039 0
-320 -1040 0
-316 -1066 0
-317 -1067 0
-318 -1068 0
-319 -1069 0
-320 -1070 0
-316 -1341 0
-317 -1342 0
-318 -1343 0
-319 -1344 0
-320 -1345 0
-316 -1466 0
-317 -1467 0
-318 -1468 0
-319 -1469 0
-320 -1470 0
-321 -596 0
-322 -597 0
-323 -598 0
-324 -599 0
-325 -600 0
-321 -621 0
-322 -622 0
-323 -623 0
-324 -624 0
-325 -625 0
-321 -696 0
-322 -697 0
-323 -698 0
-324 -699 0
-325 -700 0
-321 -721 0
-322 -722 0
-323 -723 0
-324 -724 0
-325 -725 0
-321 -796 0
-322 -797 0
-323 -798 0
-324 -799 0
-325 -800 0
-321 -841 0
-322 -842 0
-323 -843 0
-324 -844 0
-325 -845 0
-321 -1041 0
-322 -1042 0
-323 -1043 0
-324 -1044 0
-325 -1045 0
-321 -1071 0
-322 -1072 0
-323 -1073 0
-324 -1074 0
-325 -1075 0
-321 -1171 0
-322 -1172 0
-323 -1173 0
-324 -1174 0
-325 -1175 0
-321 -1196 0
-322 -1197 0
-323 -1198 0
-324 -1199 0
-325 -1200 0
-321 -1346 0
-322 -1347 0
-323 -1348 0
-324 -1349 0
-325 -1350 0
-321 -1351 0
-322 -1352 0
-323 -1353 0
-324 -1354 0
-325 -1355 0
-321 -1406 0
-322 -1407 0
-323 -1408 0
-324 -1409 0
-325 -1410 0
-321 -1411 0
-322 -1412 0
-323 -1413 0
-324 -1414 0
-325 -1415 0
-321 -1466 0
-322 -1467 0
-323 -1468 0
-324 -1469 0
-325 -1470 0
-321 -1471 0
-322 -1472 0
-323 -1473 0
-324 -1474 0
-325 -1475 0
-326 -461 0
-327 -462 0
-328 -463 0
-329 -464 0
-330 -465 0
-326 -726 0
-327 -727 0
-328 -728 0
-329 -729 0
-330 -730 0
-326 -846 0
-327 -847 0
-328 -848 0
-329 -849 0
-330 -850 0
-326 -1046 0
-327 -1047 0
-328 -1048 0
-329 -1049 0
-330 -1050 0
-326 -1076 0
-327 -1077 0
-328 -1078 0
-329 -1079 0
-330 -1080 0
-326 -1356 0
-327 -1357 0
-328 -1358 0
-329 -1359 0
-330 -1360 0
-326 -1471 0
-327 -1472 0
-328 -1473 0
-329 -1474 0
-330 -1475 0
-331 -471 0
-332 -472 0
-333 -473 0
-334 -474 0
-335 -475 0
-331 -701 0
-332 -702 0
-333 -703 0
-334 -704 0
-335 -705 0
-331 -806 0
-332 -807 0
-333 -808 0
-334 -809 0
-335 -810 0
-331 -856 0
-332 -857 0
-333 -858 0
-334 -859 0
-335 -860 0
-331 -1051 0
-332 -1052 0
-333 -1053 0
-334 -1054 0
-335 -1055 0
-331 -1081 0
-332 -1082 0
-333 -1083 0
-334 -1084 0
-335 -1085 0
-331 -1181 0
-332 -1182 0
-333 -1183 0
-334 -1184 0
-335 -1185 0
-331 -1266 0
-332 -1267 0
-333 -1268 0
-334 -1269 0
-335 -1270 0
-331 -1361 0
-332 -1362 0
-333 -1363 0
-334 -1364 0
-335 -1365 0
-331 -1476 0
-332 -1477 0
-333 -1478 0
-334 -1479 0
-335 -1480 0
-336 -441 0
-337 -442 0
-338 -443 0
-339 -444 0
-340 -445 0
-336 -476 0
-337 -477 0
-338 -478 0
-339 -479 0
-340 -480 0
-336 -671 0
-337 -672 0
-338 -673 0
-339 -674 0
-340 -675 0
-336 -706 0
-337 -707 0
-338 -708 0
-339 -709 0
-340 -710 0
-336 -746 0
-337 -747 0
-338 -748 0
-339 -749 0
-340 -750 0
-336 -811 0
-337 -812 0
-338 -813 0
-339 -814 0
-340 -815 0
-336 -996 0
-337 -997 0
-338 -998 0
-339 -999 0
-340 -1000 0
-336 -1056 0
-337 -1057 0
-338 -1058 0
-339 -1059 0
-340 -1060 0
-336 -1191 0
-337 -1192 0
-338 -1193 0
-339 -1194 0
-340 -1195 0
-336 -1206 0
-337 -1207 0
-338 -1208 0
-339 -1209 0
-340 -1210 0
-336 -1271 0
-337 -1272 0
-338 -1273 0
-339 -1274 0
-340 -1275 0
-336 -1276 0
-337 -1277 0
-338 -1278 0
-339 -1279 0
-340 -1280 0
-336 -1351 0
-337 -1352 0
-338 -1353 0
-339 -1354 0
-340 -1355 0
-336 -1366 0
-337 -1367 0
-338 -1368 0
-339 -1369 0
-340 -1370 0
-336 -1416 0
-337 -1417 0
-338 -1418 0
-339 -1419 0
-340 -1420 0
-336 -1421 0
-337 -1422 0
-338 -1423 0
-339 -1424 0
-340 -1425 0
-341 -446 0
-342 -447 0
-343 -448 0
-344 -449 0
-345 -450 0
-341 -606 0
-342 -607 0
-343 -608 0
-344 -609 0
-345 -610 0
-341 -676 0
-342 -677 0
-343 -678 0
-344 -679 0
-345 -680 0
-341 -751 0
-342 -752 0
-343 -753 0
-344 -754 0
-345 -755 0
-341 -821 0
-342 -822 0
-343 -823 0
-344 -824 0
-345 -825 0
-341 -1001 0
-342 -1002 0
-343 -1003 0
-344 -1004 0
-345 -1005 0
-341 -1061 0
-342 -1062 0
-343 -1063 0
-344 -1064 0
-345 -1065 0
-341 -1126 0
-342 -1127 0
-343 -1128 0
-344 -1129 0
-345 -1130 0
-341 -1356 0
-342 -1357 0
-343 -1358 0
-344 -1359 0
-345 -1360 0
-341 -1481 0
-342 -1482 0
-343 -1483 0
-344 -1484 0
-345 -1485 0
-346 -456 0
-347 -457 0
-348 -458 0
-349 -459 0
-350 -460 0
-346 -711 0
-347 -712 0
-348 -713 0
-349 -714 0
-350 -715 0
-346 -831 0
-347 -832 0
-348 -833 0
-349 -834 0
-350 -835 0
-346 -1006 0
-347 -1007 0
-348 -1008 0
-349 -1009 0
-350 -1010 0
-346 -1066 0
-347 -1067 0
-348 -1068 0
-349 -1069 0
-350 -1070 0
-346 -1361 0
-347 -1362 0
-348 -1363 0
-349 -1364 0
-350 -1365 0
-346 -1486 0
-347 -1487 0
-348 -1488 0
-349 -1489 0
-350 -1490 0
-351 -396 0
-352 -397 0
-353 -398 0
-354 -399 0
-355 -400 0
-351 -546 0
-352 -547 0
-353 -548 0
-354 -549 0
-355 -550 0
-351 -661 0
-352 -662 0
-353 -663 0
-354 -664 0
-355 -665 0
-351 -871 0
-352 -872 0
-353 -873 0
-354 -874 0
-355 -875 0
-351 -1276 0
-352 -1277 0
-353 -1278 0
-354 -1279 0
-355 -1280 0
-351 -1376 0
-352 -1377 0
-353 -1378 0
-354 -1379 0
-355 -1380 0
-351 -1436 0
-352 -1437 0
-353 -1438 0
-354 -1439 0
-355 -1440 0
-356 -381 0
-357 -382 0
-358 -383 0
-359 -384 0
-360 -385 0
-356 -531 0
-357 -532 0
-358 -533 0
-359 -534 0
-360 -535 0
-356 -656 0
-357 -657 0
-358 -658 0
-359 -659 0
-360 -660 0
-356 -866 0
-357 -867 0
-358 -868 0
-359 -869 0
-360 -870 0
-356 -1086 0
-357 -1087 0
-358 -1088 0
-359 -1089 0
-360 -1090 0
-356 -1251 0
-357 -1252 0
-358 -1253 0
-359 -1254 0
-360 -1255 0
-356 -1381 0
-357 -1382 0
-358 -1383 0
-359 -1384 0
-360 -1385 0
-356 -1441 0
-357 -1442 0
-358 -1443 0
-359 -1444 0
-360 -1445 0
-361 -416 0
-362 -417 0
-363 -418 0
-364 -419 0
-365 -420 0
-361 -506 0
-362 -507 0
-363 -508 0
-364 -509 0
-365 -510 0
-361 -641 0
-362 -642 0
-363 -643 0
-364 -644 0
-365 -645 0
-361 -891 0
-362 -892 0
-363 -893 0
-364 -894 0
-365 -895 0
-361 -1096 0
-362 -1097 0
-363 -1098 0
-364 -1099 0
-365 -1100 0
-361 -1236 0
-362 -1237 0
-363 -1238 0
-364 -1239 0
-365 -1240 0
-361 -1396 0
-362 -1397 0
-363 -1398 0
-364 -1399 0
-365 -1400 0
-361 -1456 0
-362 -1457 0
-363 -1458 0
-364 -1459 0
-365 -1460 0
-366 -401 0
-367 -402 0
-368 -403 0
-369 -404 0
-370 -405 0
-366 -551 0
-367 -552 0
-368 -553 0
-369 -554 0
-370 -555 0
-366 -666 0
-367 -667 0
-368 -668 0
-369 -669 0
-370 -670 0
-366 -886 0
-367 -887 0
-368 -888 0
-369 -889 0
-370 -890 0
-366 -1091 0
-367 -1092 0
-368 -1093 0
-369 -1094 0
-370 -1095 0
-366 -1271 0
-367 -1272 0
-368 -1273 0
-369 -1274 0
-370 -1275 0
-366 -1401 0
-367 -1402 0
-368 -1403 0
-369 -1404 0
-370 -1405 0
-366 -1461 0
-367 -1462 0
-368 -1463 0
-369 -1464 0
-370 -1465 0
-371 -436 0
-372 -437 0
-373 -438 0
-374 -439 0
-375 -440 0
-371 -526 0
-372 -527 0
-373 -528 0
-374 -529 0
-375 -530 0
-371 -651 0
-372 -652 0
-373 -653 0
-374 -654 0
-375 -655 0
-371 -911 0
-372 -912 0
-373 -913 0
-374 -914 0
-375 -915 0
-371 -1101 0
-372 -1102 0
-373 -1103 0
-374 -1104 0
-375 -1105 0
-371 -1256 0
-372 -1257 0
-373 -1258 0
-374 -1259 0
-375 -1260 0
-371 -1416 0
-372 -1417 0
-373 -1418 0
-374 -1419 0
-375 -1420 0
-371 -1476 0
-372 -1477 0
-373 -1478 0
-374 -1479 0
-375 -1480 0
-376 -421 0
-377 -422 0
-378 -423 0
-379 -424 0
-380 -425 0
-376 -511 0
-377 -512 0
-378 -513 0
-379 -514 0
-380 -515 0
-376 -646 0
-377 -647 0
-378 -648 0
-379 -649 0
-380 -650 0
-376 -906 0
-377 -907 0
-378 -908 0
-379 -909 0
-380 -910 0
-376 -1231 0
-377 -1232 0
-378 -1233 0
-379 -1234 0
-380 -1235 0
-376 -1421 0
-377 -1422 0
-378 -1423 0
-379 -1424 0
-380 -1425 0
-376 -1481 0
-377 -1482 0
-378 -1483 0
-379 -1484 0
-380 -1485 0
-381 -546 0
-382 -547 0
-383 -548 0
-384 -549 0
-385 -550 0
-381 -581 0
-382 -582 0
-383 -583 0
-384 -584 0
-385 -585 0
-381 -946 0
-382 -947 0
-383 -948 0
-384 -949 0
-385 -950 0
-381 -986 0
-382 -987 0
-383 -988 0
-384 -989 0
-385 -990 0
-381 -1316 0
-382 -1317 0
-383 -1318 0
-384 -1319 0
-385 -1320 0
-381 -1366 0
-382 -1367 0
-383 -1368 0
-384 -1369 0
-385 -1370 0
-381 -1376 0
-382 -1377 0
-383 -1378 0
-384 -1379 0
-385 -1380 0
-381 -1491 0
-382 -1492 0
-383 -1493 0
-384 -1494 0
-385 -1495 0
-386 -521 0
-387 -522 0
-388 -523 0
-389 -524 0
-390 -525 0
-386 -591 0
-387 -592 0
-388 -593 0
-389 -594 0
-390 -595 0
-386 -736 0
-387 -737 0
-388 -738 0
-389 -739 0
-390 -740 0
-386 -951 0
-387 -952 0
-388 -953 0
-389 -954 0
-390 -955 0
-386 -991 0
-387 -992 0
-388 -993 0
-389 -994 0
-390 -995 0
-386 -1326 0
-387 -1327 0
-388 -1328 0
-389 -1329 0
-390 -1330 0
-386 -1371 0
-387 -1372 0
-388 -1373 0
-389 -1374 0
-390 -1375 0
-386 -1521 0
-387 -1522 0
-388 -1523 0
-389 -1524 0
-390 -1525 0
-391 -556 0
-392 -557 0
-393 -558 0
-394 -559 0
-395 -560 0
-391 -936 0
-392 -937 0
-393 -938 0
-394 -939 0
-395 -940 0
-391 -956 0
-392 -957 0
-393 -958 0
-394 -959 0
-395 -960 0
-391 -1311 0
-392 -1312 0
-393 -1313 0
-394 -1314 0
-395 -1315 0
-391 -1386 0
-392 -1387 0
-393 -1388 0
-394 -1389 0
-395 -1390 0
-391 -1526 0
-392 -1527 0
-393 -1528 0
-394 -1529 0
-395 -1530 0
-396 -531 0
-397 -532 0
-398 -533 0
-399 -534 0
-400 -535 0
-396 -576 0
-397 -577 0
-398 -578 0
-399 -579 0
-400 -580 0
-396 -941 0
-397 -942 0
-398 -943 0
-399 -944 0
-400 -945 0
-396 -961 0
-397 -962 0
-398 -963 0
-399 -964 0
-400 -965 0
-396 -1321 0
-397 -1322 0
-398 -1323 0
-399 -1324 0
-400 -1325 0
-396 -1331 0
-397 -1332 0
-398 -1333 0
-399 -1334 0
-400 -1335 0
-396 -1381 0
-397 -1382 0
-398 -1383 0
-399 -1384 0
-400 -1385 0
-396 -1496 0
-397 -1497 0
-398 -1498 0
-399 -1499 0
-400 -1500 0
-401 -506 0
-402 -507 0
-403 -508 0
-404 -509 0
-405 -510 0
-401 -601 0
-402 -602 0
-403 -603 0
-404 -604 0
-405 -605 0
-401 -946 0
-402 -947 0
-403 -948 0
-404 -949 0
-405 -950 0
-401 -966 0
-402 -967 0
-403 -968 0
-404 -969 0
-405 -970 0
-401 -1326 0
-402 -1327 0
-403 -1328 0
-404 -1329 0
-405 -1330 0
-401 -1336 0
-402 -1337 0
-403 -1338 0
-404 -1339 0
-405 -1340 0
-401 -1396 0
-402 -1397 0
-403 -1398 0
-404 -1399 0
-405 -1400 0
-401 -1501 0
-402 -1502 0
-403 -1503 0
-404 -1504 0
-405 -1505 0
-406 -541 0
-407 -542 0
-408 -543 0
-409 -544 0
-410 -545 0
-406 -611 0
-407 -612 0
-408 -613 0
-409 -614 0
-410 -615 0
-406 -951 0
-407 -952 0
-408 -953 0
-409 -954 0
-410 -955 0
-406 -971 0
-407 -972 0
-408 -973 0
-409 -974 0
-410 -975 0
-406 -1346 0
-407 -1347 0
-408 -1348 0
-409 -1349 0
-410 -1350 0
-406 -1391 0
-407 -1392 0
-408 -1393 0
-409 -1394 0
-410 -1395 0
-406 -1531 0
-407 -1532 0
-408 -1533 0
-409 -1534 0
-410 -1535 0
-411 -516 0
-412 -517 0
-413 -518 0
-414 -519 0
-415 -520 0
-411 -586 0
-412 -587 0
-413 -588 0
-414 -589 0
-415 -590 0
-411 -956 0
-412 -957 0
-413 -958 0
-414 -959 0
-415 -960 0
-411 -976 0
-412 -977 0
-413 -978 0
-414 -979 0
-415 -980 0
-411 -1331 0
-412 -1332 0
-413 -1333 0
-414 -1334 0
-415 -1335 0
-411 -1406 0
-412 -1407 0
-413 -1408 0
-414 -1409 0
-415 -1410 0
-411 -1536 0
-412 -1537 0
-413 -1538 0
-414 -1539 0
-415 -1540 0
-416 -551 0
-417 -552 0
-418 -553 0
-419 -554 0
-420 -555 0
-416 -596 0
-417 -597 0
-418 -598 0
-419 -599 0
-420 -600 0
-416 -961 0
-417 -962 0
-418 -963 0
-419 -964 0
-420 -965 0
-416 -981 0
-417 -982 0
-418 -983 0
-419 -984 0
-420 -985 0
-416 -1341 0
-417 -1342 0
-418 -1343 0
-419 -1344 0
-420 -1345 0
-416 -1351 0
-417 -1352 0
-418 -1353 0
-419 -1354 0
-420 -1355 0
-416 -1401 0
-417 -1402 0
-418 -1403 0
-419 -1404 0
-420 -1405 0
-416 -1506 0
-417 -1507 0
-418 -1508 0
-419 -1509 0
-420 -1510 0
-421 -526 0
-422 -527 0
-423 -528 0
-424 -529 0
-425 -530 0
-421 -621 0
-422 -622 0
-423 -623 0
-424 -624 0
-425 -625 0
-421 -966 0
-422 -967 0
-423 -968 0
-424 -969 0
-425 -970 0
-421 -986 0
-422 -987 0
-423 -988 0
-424 -989 0
-425 -990 0
-421 -1346 0
-422 -1347 0
-423 -1348 0
-424 -1349 0
-425 -1350 0
-421 -1356 0
-422 -1357 0
-423 -1358 0
-424 -1359 0
-425 -1360 0
-421 -1416 0
-422 -1417 0
-423 -1418 0
-424 -1419 0
-425 -1420 0
-421 -1511 0
-422 -1512 0
-423 -1513 0
-424 -1514 0
-425 -1515 0
-426 -501 0
-427 -502 0
-428 -503 0
-429 -504 0
-430 -505 0
-426 -971 0
-427 -972 0
-428 -973 0
-429 -974 0
-430 -975 0
-426 -991 0
-427 -992 0
-428 -993 0
-429 -994 0
-430 -995 0
-426 -1366 0
-427 -1367 0
-428 -1368 0
-429 -1369 0
-430 -1370 0
-426 -1411 0
-427 -1412 0
-428 -1413 0
-429 -1414 0
-430 -1415 0
-426 -1541 0
-427 -1542 0
-428 -1543 0
-429 -1544 0
-430 -1545 0
-431 -536 0
-432 -537 0
-433 -538 0
-434 -539 0
-435 -540 0
-431 -606 0
-432 -607 0
-433 -608 0
-434 -609 0
-435 -610 0
-431 -731 0
-432 -732 0
-433 -733 0
-434 -734 0
-435 -735 0
-431 -936 0
-432 -937 0
-433 -938 0
-434 -939 0
-435 -940 0
-431 -976 0
-432 -977 0
-433 -978 0
-434 -979 0
-435 -980 0
-431 -1351 0
-432 -1352 0
-433 -1353 0
-434 -1354 0
-435 -1355 0
-431 -1426 0
-432 -1427 0
-433 -1428 0
-434 -1429 0
-435 -1430 0
-431 -1546 0
-432 -1547 0
-433 -1548 0
-434 -1549 0
-435 -1550 0
-436 -511 0
-437 -512 0
-438 -513 0
-439 -514 0
-440 -515 0
-436 -616 0
-437 -617 0
-438 -618 0
-439 -619 0
-440 -620 0
-436 -941 0
-437 -942 0
-438 -943 0
-439 -944 0
-440 -945 0
-436 -981 0
-437 -982 0
-438 -983 0
-439 -984 0
-440 -985 0
-436 -1311 0
-437 -1312 0
-438 -1313 0
-439 -1314 0
-440 -1315 0
-436 -1361 0
-437 -1362 0
-438 -1363 0
-439 -1364 0
-440 -1365 0
-436 -1421 0
-437 -1422 0
-438 -1423 0
-439 -1424 0
-440 -1425 0
-436 -1516 0
-437 -1517 0
-438 -1518 0
-439 -1519 0
-440 -1520 0
-441 -566 0
-442 -567 0
-443 -568 0
-444 -569 0
-445 -570 0
-441 -771 0
-442 -772 0
-443 -773 0
-444 -774 0
-445 -775 0
-441 -846 0
-442 -847 0
-443 -848 0
-444 -849 0
-445 -850 0
-441 -1206 0
-442 -1207 0
-443 -1208 0
-444 -1209 0
-445 -1210 0
-441 -1431 0
-442 -1432 0
-443 -1433 0
-444 -1434 0
-445 -1435 0
-441 -1561 0
-442 -1562 0
-443 -1563 0
-444 -1564 0
-445 -1565 0
-446 -781 0
-447 -782 0
-448 -783 0
-449 -784 0
-450 -785 0
-446 -851 0
-447 -852 0
-448 -853 0
-449 -854 0
-450 -855 0
-446 -1126 0
-447 -1127 0
-448 -1128 0
-449 -1129 0
-450 -1130 0
-446 -1441 0
-447 -1442 0
-448 -1443 0
-449 -1444 0
-450 -1445 0
-446 -1491 0
-447 -1492 0
-448 -1493 0
-449 -1494 0
-450 -1495 0
-446 -1526 0
-447 -1527 0
-448 -1528 0
-449 -1529 0
-450 -1530 0
-446 -1566 0
-447 -1567 0
-448 -1568 0
-449 -1569 0
-450 -1570 0
-451 -786 0
-452 -787 0
-453 -788 0
-454 -789 0
-455 -790 0
-451 -856 0
-452 -857 0
-453 -858 0
-454 -859 0
-455 -860 0
-451 -1151 0
-452 -1152 0
-453 -1153 0
-454 -1154 0
-455 -1155 0
-451 -1436 0
-452 -1437 0
-453 -1438 0
-454 -1439 0
-455 -1440 0
-451 -1496 0
-452 -1497 0
-453 -1498 0
-454 -1499 0
-455 -1500 0
-451 -1521 0
-452 -1522 0
-453 -1523 0
-454 -1524 0
-455 -1525 0
-451 -1566 0
-452 -1567 0
-453 -1568 0
-454 -1569 0
-455 -1570 0
-456 -561 0
-457 -562 0
-458 -563 0
-459 -564 0
-460 -565 0
-456 -746 0
-457 -747 0
-458 -748 0
-459 -749 0
-460 -750 0
-456 -791 0
-457 -792 0
-458 -793 0
-459 -794 0
-460 -795 0
-456 -1161 0
-457 -1162 0
-458 -1163 0
-459 -1164 0
-460 -1165 0
-456 -1446 0
-457 -1447 0
-458 -1448 0
-459 -1449 0
-460 -1450 0
-456 -1571 0
-457 -1572 0
-458 -1573 0
-459 -1574 0
-460 -1575 0
-461 -571 0
-462 -572 0
-463 -573 0
-464 -574 0
-465 -575 0
-461 -766 0
-462 -767 0
-463 -768 0
-464 -769 0
-465 -770 0
-461 -811 0
-462 -812 0
-463 -813 0
-464 -814 0
-465 -815 0
-461 -1146 0
-462 -1147 0
-463 -1148 0
-464 -1149 0
-465 -1150 0
-461 -1451 0
-462 -1452 0
-463 -1453 0
-464 -1454 0
-465 -1455 0
-461 -1591 0
-462 -1592 0
-463 -1593 0
-464 -1594 0
-465 -1595 0
-466 -771 0
-467 -772 0
-468 -773 0
-469 -774 0
-470 -775 0
-466 -821 0
-467 -822 0
-468 -823 0
-469 -824 0
-470 -825 0
-466 -1156 0
-467 -1157 0
-468 -1158 0
-469 -1159 0
-470 -1160 0
-466 -1461 0
-467 -1462 0
-468 -1463 0
-469 -1464 0
-470 -1465 0
-466 -1501 0
-467 -1502 0
-468 -1503 0
-469 -1504 0
-470 -1505 0
-466 -1536 0
-467 -1537 0
-468 -1538 0
-469 -1539 0
-470 -1540 0
-466 -1596 0
-467 -1597 0
-468 -1598 0
-469 -1599 0
-470 -1600 0
-471 -776 0
-472 -777 0
-473 -778 0
-474 -779 0
-475 -780 0
-471 -826 0
-472 -827 0
-473 -828 0
-474 -829 0
-475 -830 0
-471 -1181 0
-472 -1182 0
-473 -1183 0
-474 -1184 0
-475 -1185 0
-471 -1456 0
-472 -1457 0
-473 -1458 0
-474 -1459 0
-475 -1460 0
-471 -1506 0
-472 -1507 0
-473 -1508 0
-474 -1509 0
-475 -1510 0
-471 -1531 0
-472 -1532 0
-473 -1533 0
-474 -1534 0
-475 -1535 0
-471 -1596 0
-472 -1597 0
-473 -1598 0
-474 -1599 0
-475 -1600 0
-476 -566 0
-477 -567 0
-478 -568 0
-479 -569 0
-480 -570 0
-476 -786 0
-477 -787 0
-478 -788 0
-479 -789 0
-480 -790 0
-476 -831 0
-477 -832 0
-478 -833 0
-479 -834 0
-480 -835 0
-476 -1191 0
-477 -1192 0
-478 -1193 0
-479 -1194 0
-480 -1195 0
-476 -1466 0
-477 -1467 0
-478 -1468 0
-479 -1469 0
-480 -1470 0
-476 -1601 0
-477 -1602 0
-478 -1603 0
-479 -1604 0
-480 -1605 0
-481 -561 0
-482 -562 0
-483 -563 0
-484 -564 0
-485 -565 0
-481 -806 0
-482 -807 0
-483 -808 0
-484 -809 0
-485 -810 0
-481 -851 0
-482 -852 0
-483 -853 0
-484 -854 0
-485 -855 0
-481 -1176 0
-482 -1177 0
-483 -1178 0
-484 -1179 0
-485 -1180 0
-481 -1471 0
-482 -1472 0
-483 -1473 0
-484 -1474 0
-485 -1475 0
-481 -1621 0
-482 -1622 0
-483 -1623 0
-484 -1624 0
-485 -1625 0
-486 -741 0
-487 -742 0
-488 -743 0
-489 -744 0
-490 -745 0
-486 -811 0
-487 -812 0
-488 -813 0
-489 -814 0
-490 -815 0
-486 -1186 0
-487 -1187 0
-488 -1188 0
-489 -1189 0
-490 -1190 0
-486 -1481 0
-487 -1482 0
-488 -1483 0
-489 -1484 0
-490 -1485 0
-486 -1511 0
-487 -1512 0
-488 -1513 0
-489 -1514 0
-490 -1515 0
-486 -1546 0
-487 -1547 0
-488 -1548 0
-489 -1549 0
-490 -1550 0
-486 -1626 0
-487 -1627 0
-488 -1628 0
-489 -1629 0
-490 -1630 0
-491 -746 0
-492 -747 0
-493 -748 0
-494 -749 0
-495 -750 0
-491 -816 0
-492 -817 0
-493 -818 0
-494 -819 0
-495 -820 0
-491 -1211 0
-492 -1212 0
-493 -1213 0
-494 -1214 0
-495 -1215 0
-491 -1476 0
-492 -1477 0
-493 -1478 0
-494 -1479 0
-495 -1480 0
-491 -1516 0
-492 -1517 0
-493 -1518 0
-494 -1519 0
-495 -1520 0
-491 -1541 0
-492 -1542 0
-493 -1543 0
-494 -1544 0
-495 -1545 0
-491 -1626 0
-492 -1627 0
-493 -1628 0
-494 -1629 0
-495 -1630 0
-496 -571 0
-497 -572 0
-498 -573 0
-499 -574 0
-500 -575 0
-496 -751 0
-497 -752 0
-498 -753 0
-499 -754 0
-500 -755 0
-496 -826 0
-497 -827 0
-498 -828 0
-499 -829 0
-500 -830 0
-496 -1131 0
-497 -1132 0
-498 -1133 0
-499 -1134 0
-500 -1135 0
-496 -1486 0
-497 -1487 0
-498 -1488 0
-499 -1489 0
-500 -1490 0
-496 -1631 0
-497 -1632 0
-498 -1633 0
-499 -1634 0
-500 -1635 0
-501 -516 0
-502 -517 0
-503 -518 0
-504 -519 0
-505 -520 0
-501 -871 0
-502 -872 0
-503 -873 0
-504 -874 0
-505 -875 0
-501 -1016 0
-502 -1017 0
-503 -1018 0
-504 -1019 0
-505 -1020 0
-506 -551 0
-507 -552 0
-508 -553 0
-509 -554 0
-510 -555 0
-506 -631 0
-507 -632 0
-508 -633 0
-509 -634 0
-510 -635 0
-506 -916 0
-507 -917 0
-508 -918 0
-509 -919 0
-510 -920 0
-506 -1081 0
-507 -1082 0
-508 -1083 0
-509 -1084 0
-510 -1085 0
-506 -1521 0
-507 -1522 0
-508 -1523 0
-509 -1524 0
-510 -1525 0
-511 -526 0
-512 -527 0
-513 -528 0
-514 -529 0
-515 -530 0
-511 -626 0
-512 -627 0
-513 -628 0
-514 -629 0
-515 -630 0
-511 -881 0
-512 -882 0
-513 -883 0
-514 -884 0
-515 -885 0
-511 -1031 0
-512 -1032 0
-513 -1033 0
-514 -1034 0
-515 -1035 0
-511 -1526 0
-512 -1527 0
-513 -1528 0
-514 -1529 0
-515 -1530 0
-516 -866 0
-517 -867 0
-518 -868 0
-519 -869 0
-520 -870 0
-516 -1006 0
-517 -1007 0
-518 -1008 0
-519 -1009 0
-520 -1010 0
-521 -536 0
-522 -537 0
-523 -538 0
-524 -539 0
-525 -540 0
-521 -891 0
-522 -892 0
-523 -893 0
-524 -894 0
-525 -895 0
-521 -1046 0
-522 -1047 0
-523 -1048 0
-524 -1049 0
-525 -1050 0
-526 -636 0
-527 -637 0
-528 -638 0
-529 -639 0
-530 -640 0
-526 -876 0
-527 -877 0
-528 -878 0
-529 -879 0
-530 -880 0
-526 -1021 0
-527 -1022 0
-528 -1023 0
-529 -1024 0
-530 -1025 0
-526 -1531 0
-527 -1532 0
-528 -1533 0
-529 -1534 0
-530 -1535 0
-531 -546 0
-532 -547 0
-533 -548 0
-534 -549 0
-535 -550 0
-531 -631 0
-532 -632 0
-533 -633 0
-534 -634 0
-535 -635 0
-531 -901 0
-532 -902 0
-533 -903 0
-534 -904 0
-535 -905 0
-531 -1061 0
-532 -1062 0
-533 -1063 0
-534 -1064 0
-535 -1065 0
-531 -1536 0
-532 -1537 0
-533 -1538 0
-534 -1539 0
-535 -1540 0
-536 -886 0
-537 -887 0
-538 -888 0
-539 -889 0
-540 -890 0
-536 -1036 0
-537 -1037 0
-538 -1038 0
-539 -1039 0
-540 -1040 0
-541 -556 0
-542 -557 0
-543 -558 0
-544 -559 0
-545 -560 0
-541 -911 0
-542 -912 0
-543 -913 0
-544 -914 0
-545 -915 0
-541 -1076 0
-542 -1077 0
-543 -1078 0
-544 -1079 0
-545 -1080 0
-546 -626 0
-547 -627 0
-548 -628 0
-549 -629 0
-550 -630 0
-546 -896 0
-547 -897 0
-548 -898 0
-549 -899 0
-550 -900 0
-546 -1051 0
-547 -1052 0
-548 -1053 0
-549 -1054 0
-550 -1055 0
-546 -1541 0
-547 -1542 0
-548 -1543 0
-549 -1544 0
-550 -1545 0
-551 -636 0
-552 -637 0
-553 -638 0
-554 -639 0
-555 -640 0
-551 -861 0
-552 -862 0
-553 -863 0
-554 -864 0
-555 -865 0
-551 -1001 0
-552 -1002 0
-553 -1003 0
-554 -1004 0
-555 -1005 0
-551 -1546 0
-552 -1547 0
-553 -1548 0
-554 -1549 0
-555 -1550 0
-556 -906 0
-557 -907 0
-558 -908 0
-559 -909 0
-560 -910 0
-556 -1066 0
-557 -1067 0
-558 -1068 0
-559 -1069 0
-560 -1070 0
-561 -1556 0
-562 -1557 0
-563 -1558 0
-564 -1559 0
-565 -1560 0
-561 -1636 0
-562 -1637 0
-563 -1638 0
-564 -1639 0
-565 -1640 0
-566 -1576 0
-567 -1577 0
-568 -1578 0
-569 -1579 0
-570 -1580 0
-566 -1586 0
-567 -1587 0
-568 -1588 0
-569 -1589 0
-570 -1590 0
-571 -1606 0
-572 -1607 0
-573 -1608 0
-574 -1609 0
-575 -1610 0
-571 -1616 0
-572 -1617 0
-573 -1618 0
-574 -1619 0
-575 -1620 0
-576 -721 0
-577 -722 0
-578 -723 0
-579 -724 0
-580 -725 0
-576 -1321 0
-577 -1322 0
-578 -1323 0
-579 -1324 0
-580 -1325 0
-576 -1521 0
-577 -1522 0
-578 -1523 0
-579 -1524 0
-580 -1525 0
-576 -1641 0
-577 -1642 0
-578 -1643 0
-579 -1644 0
-580 -1645 0
-576 -1671 0
-577 -1672 0
-578 -1673 0
-579 -1674 0
-580 -1675 0
-581 -696 0
-582 -697 0
-583 -698 0
-584 -699 0
-585 -700 0
-581 -731 0
-582 -732 0
-583 -733 0
-584 -734 0
-585 -735 0
-581 -1111 0
-582 -1112 0
-583 -1113 0
-584 -1114 0
-585 -1115 0
-581 -1316 0
-582 -1317 0
-583 -1318 0
-584 -1319 0
-585 -1320 0
-581 -1526 0
-582 -1527 0
-583 -1528 0
-584 -1529 0
-585 -1530 0
-581 -1646 0
-582 -1647 0
-583 -1648 0
-584 -1649 0
-585 -1650 0
-581 -1676 0
-582 -1677 0
-583 -1678 0
-584 -1679 0
-585 -1680 0
-586 -676 0
-587 -677 0
-588 -678 0
-589 -679 0
-590 -680 0
-586 -1091 0
-587 -1092 0
-588 -1093 0
-589 -1094 0
-590 -1095 0
-586 -1286 0
-587 -1287 0
-588 -1288 0
-589 -1289 0
-590 -1290 0
-586 -1331 0
-587 -1332 0
-588 -1333 0
-589 -1334 0
-590 -1335 0
-586 -1646 0
-587 -1647 0
-588 -1648 0
-589 -1649 0
-590 -1650 0
-591 -701 0
-592 -702 0
-593 -703 0
-594 -704 0
-595 -705 0
-591 -1291 0
-592 -1292 0
-593 -1293 0
-594 -1294 0
-595 -1295 0
-591 -1326 0
-592 -1327 0
-593 -1328 0
-594 -1329 0
-595 -1330 0
-591 -1651 0
-592 -1652 0
-593 -1653 0
-594 -1654 0
-595 -1655 0
-596 -681 0
-597 -682 0
-598 -683 0
-599 -684 0
-600 -685 0
-596 -1106 0
-597 -1107 0
-598 -1108 0
-599 -1109 0
-600 -1110 0
-596 -1341 0
-597 -1342 0
-598 -1343 0
-599 -1344 0
-600 -1345 0
-596 -1531 0
-597 -1532 0
-598 -1533 0
-599 -1534 0
-600 -1535 0
-596 -1651 0
-597 -1652 0
-598 -1653 0
-599 -1654 0
-600 -1655 0
-596 -1681 0
-597 -1682 0
-598 -1683 0
-599 -1684 0
-600 -1685 0
-601 -716 0
-602 -717 0
-603 -718 0
-604 -719 0
-605 -720 0
-601 -1121 0
-602 -1122 0
-603 -1123 0
-604 -1124 0
-605 -1125 0
-601 -1336 0
-602 -1337 0
-603 -1338 0
-604 -1339 0
-605 -1340 0
-601 -1536 0
-602 -1537 0
-603 -1538 0
-604 -1539 0
-605 -1540 0
-601 -1656 0
-602 -1657 0
-603 -1658 0
-604 -1659 0
-605 -1660 0
-601 -1686 0
-602 -1687 0
-603 -1688 0
-604 -1689 0
-605 -1690 0
-606 -696 0
-607 -697 0
-608 -698 0
-609 -699 0
-610 -700 0
-606 -1296 0
-607 -1297 0
-608 -1298 0
-609 -1299 0
-610 -1300 0
-606 -1351 0
-607 -1352 0
-608 -1353 0
-609 -1354 0
-610 -1355 0
-606 -1656 0
-607 -1657 0
-608 -1658 0
-609 -1659 0
-610 -1660 0
-611 -721 0
-612 -722 0
-613 -723 0
-614 -724 0
-615 -725 0
-611 -1096 0
-612 -1097 0
-613 -1098 0
-614 -1099 0
-615 -1100 0
-611 -1301 0
-612 -1302 0
-613 -1303 0
-614 -1304 0
-615 -1305 0
-611 -1346 0
-612 -1347 0
-613 -1348 0
-614 -1349 0
-615 -1350 0
-611 -1661 0
-612 -1662 0
-613 -1663 0
-614 -1664 0
-615 -1665 0
-616 -701 0
-617 -702 0
-618 -703 0
-619 -704 0
-620 -705 0
-616 -736 0
-617 -737 0
-618 -738 0
-619 -739 0
-620 -740 0
-616 -1116 0
-617 -1117 0
-618 -1118 0
-619 -1119 0
-620 -1120 0
-616 -1361 0
-617 -1362 0
-618 -1363 0
-619 -1364 0
-620 -1365 0
-616 -1541 0
-617 -1542 0
-618 -1543 0
-619 -1544 0
-620 -1545 0
-616 -1661 0
-617 -1662 0
-618 -1663 0
-619 -1664 0
-620 -1665 0
-616 -1691 0
-617 -1692 0
-618 -1693 0
-619 -1694 0
-620 -1695 0
-621 -676 0
-622 -677 0
-623 -678 0
-624 -679 0
-625 -680 0
-621 -1356 0
-622 -1357 0
-623 -1358 0
-624 -1359 0
-625 -1360 0
-621 -1546 0
-622 -1547 0
-623 -1548 0
-624 -1549 0
-625 -1550 0
-621 -1666 0
-622 -1667 0
-623 -1668 0
-624 -1669 0
-625 -1670 0
-621 -1696 0
-622 -1697 0
-623 -1698 0
-624 -1699 0
-625 -1700 0
-626 -921 0
-627 -922 0
-628 -923 0
-629 -924 0
-630 -925 0
-626 -931 0
-627 -932 0
-628 -933 0
-629 -934 0
-630 -935 0
-626 -1436 0
-627 -1437 0
-628 -1438 0
-629 -1439 0
-630 -1440 0
-626 -1481 0
-627 -1482 0
-628 -1483 0
-629 -1484 0
-630 -1485 0
-626 -1491 0
-627 -1492 0
-628 -1493 0
-629 -1494 0
-630 -1495 0
-626 -1516 0
-627 -1517 0
-628 -1518 0
-629 -1519 0
-630 -1520 0
-631 -921 0
-632 -922 0
-633 -923 0
-634 -924 0
-635 -925 0
-631 -926 0
-632 -927 0
-633 -928 0
-634 -929 0
-635 -930 0
-631 -1441 0
-632 -1442 0
-633 -1443 0
-634 -1444 0
-635 -1445 0
-631 -1456 0
-632 -1457 0
-633 -1458 0
-634 -1459 0
-635 -1460 0
-631 -1496 0
-632 -1497 0
-633 -1498 0
-634 -1499 0
-635 -1500 0
-631 -1501 0
-632 -1502 0
-633 -1503 0
-634 -1504 0
-635 -1505 0
-636 -926 0
-637 -927 0
-638 -928 0
-639 -929 0
-640 -930 0
-636 -931 0
-637 -932 0
-638 -933 0
-639 -934 0
-640 -935 0
-636 -1461 0
-637 -1462 0
-638 -1463 0
-639 -1464 0
-640 -1465 0
-636 -1476 0
-637 -1477 0
-638 -1478 0
-639 -1479 0
-640 -1480 0
-636 -1506 0
-637 -1507 0
-638 -1508 0
-639 -1509 0
-640 -1510 0
-636 -1511 0
-637 -1512 0
-638 -1513 0
-639 -1514 0
-640 -1515 0
-641 -776 0
-642 -777 0
-643 -778 0
-644 -779 0
-645 -780 0
-641 -851 0
-642 -852 0
-643 -853 0
-644 -854 0
-645 -855 0
-641 -1236 0
-642 -1237 0
-643 -1238 0
-644 -1239 0
-645 -1240 0
-641 -1671 0
-642 -1672 0
-643 -1673 0
-644 -1674 0
-645 -1675 0
-646 -741 0
-647 -742 0
-648 -743 0
-649 -744 0
-650 -745 0
-646 -786 0
-647 -787 0
-648 -788 0
-649 -789 0
-650 -790 0
-646 -1231 0
-647 -1232 0
-648 -1233 0
-649 -1234 0
-650 -1235 0
-646 -1241 0
-647 -1242 0
-648 -1243 0
-649 -1244 0
-650 -1245 0
-646 -1676 0
-647 -1677 0
-648 -1678 0
-649 -1679 0
-650 -1680 0
-651 -771 0
-652 -772 0
-653 -773 0
-654 -774 0
-655 -775 0
-651 -816 0
-652 -817 0
-653 -818 0
-654 -819 0
-655 -820 0
-651 -1246 0
-652 -1247 0
-653 -1248 0
-654 -1249 0
-655 -1250 0
-651 -1256 0
-652 -1257 0
-653 -1258 0
-654 -1259 0
-655 -1260 0
-651 -1681 0
-652 -1682 0
-653 -1683 0
-654 -1684 0
-655 -1685 0
-656 -781 0
-657 -782 0
-658 -783 0
-659 -784 0
-660 -785 0
-656 -826 0
-657 -827 0
-658 -828 0
-659 -829 0
-660 -830 0
-656 -1251 0
-657 -1252 0
-658 -1253 0
-659 -1254 0
-660 -1255 0
-656 -1261 0
-657 -1262 0
-658 -1263 0
-659 -1264 0
-660 -1265 0
-656 -1686 0
-657 -1687 0
-658 -1688 0
-659 -1689 0
-660 -1690 0
-661 -811 0
-662 -812 0
-663 -813 0
-664 -814 0
-665 -815 0
-661 -856 0
-662 -857 0
-663 -858 0
-664 -859 0
-665 -860 0
-661 -1266 0
-662 -1267 0
-663 -1268 0
-664 -1269 0
-665 -1270 0
-661 -1276 0
-662 -1277 0
-663 -1278 0
-664 -1279 0
-665 -1280 0
-661 -1691 0
-662 -1692 0
-663 -1693 0
-664 -1694 0
-665 -1695 0
-666 -746 0
-667 -747 0
-668 -748 0
-669 -749 0
-670 -750 0
-666 -821 0
-667 -822 0
-668 -823 0
-669 -824 0
-670 -825 0
-666 -1271 0
-667 -1272 0
-668 -1273 0
-669 -1274 0
-670 -1275 0
-666 -1696 0
-667 -1697 0
-668 -1698 0
-669 -1699 0
-670 -1700 0
-671 -871 0
-672 -872 0
-673 -873 0
-674 -874 0
-675 -875 0
-671 -911 0
-672 -912 0
-673 -913 0
-674 -914 0
-675 -915 0
-671 -1141 0
-672 -1142 0
-673 -1143 0
-674 -1144 0
-675 -1145 0
-671 -1276 0
-672 -1277 0
-673 -1278 0
-674 -1279 0
-675 -1280 0
-671 -1671 0
-672 -1672 0
-673 -1673 0
-674 -1674 0
-675 -1675 0
-671 -1701 0
-672 -1702 0
-673 -1703 0
-674 -1704 0
-675 -1705 0
-676 -876 0
-677 -877 0
-678 -878 0
-679 -879 0
-680 -880 0
-676 -916 0
-677 -917 0
-678 -918 0
-679 -919 0
-680 -920 0
-676 -1206 0
-677 -1207 0
-678 -1208 0
-679 -1209 0
-680 -1210 0
-676 -1526 0
-677 -1527 0
-678 -1528 0
-679 -1529 0
-680 -1530 0
-681 -861 0
-682 -862 0
-683 -863 0
-684 -864 0
-685 -865 0
-681 -881 0
-682 -882 0
-683 -883 0
-684 -884 0
-685 -885 0
-681 -1161 0
-682 -1162 0
-683 -1163 0
-684 -1164 0
-685 -1165 0
-681 -1246 0
-682 -1247 0
-683 -1248 0
-684 -1249 0
-685 -1250 0
-681 -1521 0
-682 -1522 0
-683 -1523 0
-684 -1524 0
-685 -1525 0
-686 -866 0
-687 -867 0
-688 -868 0
-689 -869 0
-690 -870 0
-686 -886 0
-687 -887 0
-688 -888 0
-689 -889 0
-690 -890 0
-686 -1136 0
-687 -1137 0
-688 -1138 0
-689 -1139 0
-690 -1140 0
-686 -1251 0
-687 -1252 0
-688 -1253 0
-689 -1254 0
-690 -1255 0
-686 -1676 0
-687 -1677 0
-688 -1678 0
-689 -1679 0
-690 -1680 0
-686 -1706 0
-687 -1707 0
-688 -1708 0
-689 -1709 0
-690 -1710 0
-691 -871 0
-692 -872 0
-693 -873 0
-694 -874 0
-695 -875 0
-691 -891 0
-692 -892 0
-693 -893 0
-694 -894 0
-695 -895 0
-691 -1171 0
-692 -1172 0
-693 -1173 0
-694 -1174 0
-695 -1175 0
-691 -1236 0
-692 -1237 0
-693 -1238 0
-694 -1239 0
-695 -1240 0
-691 -1681 0
-692 -1682 0
-693 -1683 0
-694 -1684 0
-695 -1685 0
-696 -876 0
-697 -877 0
-698 -878 0
-699 -879 0
-700 -880 0
-696 -896 0
-697 -897 0
-698 -898 0
-699 -899 0
-700 -900 0
-696 -1146 0
-697 -1147 0
-698 -1148 0
-699 -1149 0
-700 -1150 0
-696 -1241 0
-697 -1242 0
-698 -1243 0
-699 -1244 0
-700 -1245 0
-696 -1536 0
-697 -1537 0
-698 -1538 0
-699 -1539 0
-700 -1540 0
-701 -881 0
-702 -882 0
-703 -883 0
-704 -884 0
-705 -885 0
-701 -901 0
-702 -902 0
-703 -903 0
-704 -904 0
-705 -905 0
-701 -1191 0
-702 -1192 0
-703 -1193 0
-704 -1194 0
-705 -1195 0
-701 -1266 0
-702 -1267 0
-703 -1268 0
-704 -1269 0
-705 -1270 0
-701 -1531 0
-702 -1532 0
-703 -1533 0
-704 -1534 0
-705 -1535 0
-706 -886 0
-707 -887 0
-708 -888 0
-709 -889 0
-710 -890 0
-706 -906 0
-707 -907 0
-708 -908 0
-709 -909 0
-710 -910 0
-706 -1166 0
-707 -1167 0
-708 -1168 0
-709 -1169 0
-710 -1170 0
-706 -1271 0
-707 -1272 0
-708 -1273 0
-709 -1274 0
-710 -1275 0
-706 -1686 0
-707 -1687 0
-708 -1688 0
-709 -1689 0
-710 -1690 0
-711 -891 0
-712 -892 0
-713 -893 0
-714 -894 0
-715 -895 0
-711 -911 0
-712 -912 0
-713 -913 0
-714 -914 0
-715 -915 0
-711 -1201 0
-712 -1202 0
-713 -1203 0
-714 -1204 0
-715 -1205 0
-711 -1256 0
-712 -1257 0
-713 -1258 0
-714 -1259 0
-715 -1260 0
-711 -1691 0
-712 -1692 0
-713 -1693 0
-714 -1694 0
-715 -1695 0
-711 -1711 0
-712 -1712 0
-713 -1713 0
-714 -1714 0
-715 -1715 0
-716 -896 0
-717 -897 0
-718 -898 0
-719 -899 0
-720 -900 0
-716 -916 0
-717 -917 0
-718 -918 0
-719 -919 0
-720 -920 0
-716 -1176 0
-717 -1177 0
-718 -1178 0
-719 -1179 0
-720 -1180 0
-716 -1261 0
-717 -1262 0
-718 -1263 0
-719 -1264 0
-720 -1265 0
-716 -1546 0
-717 -1547 0
-718 -1548 0
-719 -1549 0
-720 -1550 0
-721 -861 0
-722 -862 0
-723 -863 0
-724 -864 0
-725 -865 0
-721 -901 0
-722 -902 0
-723 -903 0
-724 -904 0
-725 -905 0
-721 -1131 0
-722 -1132 0
-723 -1133 0
-724 -1134 0
-725 -1135 0
-721 -1541 0
-722 -1542 0
-723 -1543 0
-724 -1544 0
-725 -1545 0
-726 -866 0
-727 -867 0
-728 -868 0
-729 -869 0
-730 -870 0
-726 -906 0
-727 -907 0
-728 -908 0
-729 -909 0
-730 -910 0
-726 -1196 0
-727 -1197 0
-728 -1198 0
-729 -1199 0
-730 -1200 0
-726 -1231 0
-727 -1232 0
-728 -1233 0
-729 -1234 0
-730 -1235 0
-726 -1696 0
-727 -1697 0
-728 -1698 0
-729 -1699 0
-730 -1700 0
-726 -1716 0
-727 -1717 0
-728 -1718 0
-729 -1719 0
-730 -1720 0
-731 -1286 0
-732 -1287 0
-733 -1288 0
-734 -1289 0
-735 -1290 0
-731 -1426 0
-732 -1427 0
-733 -1428 0
-734 -1429 0
-735 -1430 0
-736 -1301 0
-737 -1302 0
-738 -1303 0
-739 -1304 0
-740 -1305 0
-736 -1371 0
-737 -1372 0
-738 -1373 0
-739 -1374 0
-740 -1375 0
-741 -921 0
-742 -922 0
-743 -923 0
-744 -924 0
-745 -925 0
-741 -986 0
-742 -987 0
-743 -988 0
-744 -989 0
-745 -990 0
-741 -1316 0
-742 -1317 0
-743 -1318 0
-744 -1319 0
-745 -1320 0
-741 -1481 0
-742 -1482 0
-743 -1483 0
-744 -1484 0
-745 -1485 0
-741 -1666 0
-742 -1667 0
-743 -1668 0
-744 -1669 0
-745 -1670 0
-741 -1781 0
-742 -1782 0
-743 -1783 0
-744 -1784 0
-745 -1785 0
-746 -761 0
-747 -762 0
-748 -763 0
-749 -764 0
-750 -765 0
-746 -841 0
-747 -842 0
-748 -843 0
-749 -844 0
-750 -845 0
-746 -946 0
-747 -947 0
-748 -948 0
-749 -949 0
-750 -950 0
-746 -1216 0
-747 -1217 0
-748 -1218 0
-749 -1219 0
-750 -1220 0
-746 -1366 0
-747 -1367 0
-748 -1368 0
-749 -1369 0
-750 -1370 0
-746 -1561 0
-747 -1562 0
-748 -1563 0
-749 -1564 0
-750 -1565 0
-746 -1636 0
-747 -1637 0
-748 -1638 0
-749 -1639 0
-750 -1640 0
-746 -1716 0
-747 -1717 0
-748 -1718 0
-749 -1719 0
-750 -1720 0
-746 -1736 0
-747 -1737 0
-748 -1738 0
-749 -1739 0
-750 -1740 0
-746 -1741 0
-747 -1742 0
-748 -1743 0
-749 -1744 0
-750 -1745 0
-746 -1786 0
-747 -1787 0
-748 -1788 0
-749 -1789 0
-750 -1790 0
-751 -766 0
-752 -767 0
-753 -768 0
-754 -769 0
-755 -770 0
-751 -846 0
-752 -847 0
-753 -848 0
-754 -849 0
-755 -850 0
-751 -1321 0
-752 -1322 0
-753 -1323 0
-754 -1324 0
-755 -1325 0
-751 -1486 0
-752 -1487 0
-753 -1488 0
-754 -1489 0
-755 -1490 0
-751 -1551 0
-752 -1552 0
-753 -1553 0
-754 -1554 0
-755 -1555 0
-751 -1566 0
-752 -1567 0
-753 -1568 0
-754 -1569 0
-755 -1570 0
-751 -1701 0
-752 -1702 0
-753 -1703 0
-754 -1704 0
-755 -1705 0
-751 -1741 0
-752 -1742 0
-753 -1743 0
-754 -1744 0
-755 -1745 0
-756 -771 0
-757 -772 0
-758 -773 0
-759 -774 0
-760 -775 0
-756 -851 0
-757 -852 0
-758 -853 0
-759 -854 0
-760 -855 0
-756 -991 0
-757 -992 0
-758 -993 0
-759 -994 0
-760 -995 0
-756 -1106 0
-757 -1107 0
-758 -1108 0
-759 -1109 0
-760 -1110 0
-756 -1326 0
-757 -1327 0
-758 -1328 0
-759 -1329 0
-760 -1330 0
-756 -1431 0
-757 -1432 0
-758 -1433 0
-759 -1434 0
-760 -1435 0
-756 -1441 0
-757 -1442 0
-758 -1443 0
-759 -1444 0
-760 -1445 0
-756 -1556 0
-757 -1557 0
-758 -1558 0
-759 -1559 0
-760 -1560 0
-756 -1571 0
-757 -1572 0
-758 -1573 0
-759 -1574 0
-760 -1575 0
-756 -1641 0
-757 -1642 0
-758 -1643 0
-759 -1644 0
-760 -1645 0
-756 -1721 0
-757 -1722 0
-758 -1723 0
-759 -1724 0
-760 -1725 0
-756 -1791 0
-757 -1792 0
-758 -1793 0
-759 -1794 0
-760 -1795 0
-761 -786 0
-762 -787 0
-763 -788 0
-764 -789 0
-765 -790 0
-761 -956 0
-762 -957 0
-763 -958 0
-764 -959 0
-765 -960 0
-761 -1311 0
-762 -1312 0
-763 -1313 0
-764 -1314 0
-765 -1315 0
-761 -1436 0
-762 -1437 0
-763 -1438 0
-764 -1439 0
-765 -1440 0
-761 -1446 0
-762 -1447 0
-763 -1448 0
-764 -1449 0
-765 -1450 0
-761 -1561 0
-762 -1562 0
-763 -1563 0
-764 -1564 0
-765 -1565 0
-761 -1576 0
-762 -1577 0
-763 -1578 0
-764 -1579 0
-765 -1580 0
-761 -1646 0
-762 -1647 0
-763 -1648 0
-764 -1649 0
-765 -1650 0
-761 -1721 0
-762 -1722 0
-763 -1723 0
-764 -1724 0
-765 -1725 0
-761 -1796 0
-762 -1797 0
-763 -1798 0
-764 -1799 0
-765 -1800 0
-766 -791 0
-767 -792 0
-768 -793 0
-769 -794 0
-770 -795 0
-766 -1111 0
-767 -1112 0
-768 -1113 0
-769 -1114 0
-770 -1115 0
-766 -1316 0
-767 -1317 0
-768 -1318 0
-769 -1319 0
-770 -1320 0
-766 -1451 0
-767 -1452 0
-768 -1453 0
-769 -1454 0
-770 -1455 0
-766 -1566 0
-767 -1567 0
-768 -1568 0
-769 -1569 0
-770 -1570 0
-766 -1581 0
-767 -1582 0
-768 -1583 0
-769 -1584 0
-770 -1585 0
-766 -1706 0
-767 -1707 0
-768 -1708 0
-769 -1709 0
-770 -1710 0
-766 -1746 0
-767 -1747 0
-768 -1748 0
-769 -1749 0
-770 -1750 0
-771 -796 0
-772 -797 0
-773 -798 0
-774 -799 0
-775 -800 0
-771 -941 0
-772 -942 0
-773 -943 0
-774 -944 0
-775 -945 0
-771 -1216 0
-772 -1217 0
-773 -1218 0
-774 -1219 0
-775 -1220 0
-771 -1331 0
-772 -1332 0
-773 -1333 0
-774 -1334 0
-775 -1335 0
-771 -1571 0
-772 -1572 0
-773 -1573 0
-774 -1574 0
-775 -1575 0
-771 -1586 0
-772 -1587 0
-773 -1588 0
-774 -1589 0
-775 -1590 0
-771 -1746 0
-772 -1747 0
-773 -1748 0
-774 -1749 0
-775 -1750 0
-771 -1801 0
-772 -1802 0
-773 -1803 0
-774 -1804 0
-775 -1805 0
-776 -921 0
-777 -922 0
-778 -923 0
-779 -924 0
-780 -925 0
-776 -961 0
-777 -962 0
-778 -963 0
-779 -964 0
-780 -965 0
-776 -1321 0
-777 -1322 0
-778 -1323 0
-779 -1324 0
-780 -1325 0
-776 -1456 0
-777 -1457 0
-778 -1458 0
-779 -1459 0
-780 -1460 0
-776 -1651 0
-777 -1652 0
-778 -1653 0
-779 -1654 0
-780 -1655 0
-776 -1751 0
-777 -1752 0
-778 -1753 0
-779 -1754 0
-780 -1755 0
-781 -926 0
-782 -927 0
-783 -928 0
-784 -929 0
-785 -930 0
-781 -946 0
-782 -947 0
-783 -948 0
-784 -949 0
-785 -950 0
-781 -1336 0
-782 -1337 0
-783 -1338 0
-784 -1339 0
-785 -1340 0
-781 -1441 0
-782 -1442 0
-783 -1443 0
-784 -1444 0
-785 -1445 0
-781 -1646 0
-782 -1647 0
-783 -1648 0
-784 -1649 0
-785 -1650 0
-786 -801 0
-787 -802 0
-788 -803 0
-789 -804 0
-790 -805 0
-786 -966 0
-787 -967 0
-788 -968 0
-789 -969 0
-790 -970 0
-786 -1221 0
-787 -1222 0
-788 -1223 0
-789 -1224 0
-790 -1225 0
-786 -1326 0
-787 -1327 0
-788 -1328 0
-789 -1329 0
-790 -1330 0
-786 -1576 0
-787 -1577 0
-788 -1578 0
-789 -1579 0
-790 -1580 0
-786 -1591 0
-787 -1592 0
-788 -1593 0
-789 -1594 0
-790 -1595 0
-786 -1706 0
-787 -1707 0
-788 -1708 0
-789 -1709 0
-790 -1710 0
-786 -1751 0
-787 -1752 0
-788 -1753 0
-789 -1754 0
-790 -1755 0
-786 -1756 0
-787 -1757 0
-788 -1758 0
-789 -1759 0
-790 -1760 0
-786 -1806 0
-787 -1807 0
-788 -1808 0
-789 -1809 0
-790 -1810 0
-791 -806 0
-792 -807 0
-793 -808 0
-794 -809 0
-795 -810 0
-791 -1106 0
-792 -1107 0
-793 -1108 0
-794 -1109 0
-795 -1110 0
-791 -1341 0
-792 -1342 0
-793 -1343 0
-794 -1344 0
-795 -1345 0
-791 -1446 0
-792 -1447 0
-793 -1448 0
-794 -1449 0
-795 -1450 0
-791 -1581 0
-792 -1582 0
-793 -1583 0
-794 -1584 0
-795 -1585 0
-791 -1596 0
-792 -1597 0
-793 -1598 0
-794 -1599 0
-795 -1600 0
-791 -1756 0
-792 -1757 0
-793 -1758 0
-794 -1759 0
-795 -1760 0
-796 -811 0
-797 -812 0
-798 -813 0
-799 -814 0
-800 -815 0
-796 -951 0
-797 -952 0
-798 -953 0
-799 -954 0
-800 -955 0
-796 -1116 0
-797 -1117 0
-798 -1118 0
-799 -1119 0
-800 -1120 0
-796 -1346 0
-797 -1347 0
-798 -1348 0
-799 -1349 0
-800 -1350 0
-796 -1451 0
-797 -1452 0
-798 -1453 0
-799 -1454 0
-800 -1455 0
-796 -1461 0
-797 -1462 0
-798 -1463 0
-799 -1464 0
-800 -1465 0
-796 -1586 0
-797 -1587 0
-798 -1588 0
-799 -1589 0
-800 -1590 0
-796 -1601 0
-797 -1602 0
-798 -1603 0
-799 -1604 0
-800 -1605 0
-796 -1651 0
-797 -1652 0
-798 -1653 0
-799 -1654 0
-800 -1655 0
-796 -1726 0
-797 -1727 0
-798 -1728 0
-799 -1729 0
-800 -1730 0
-796 -1811 0
-797 -1812 0
-798 -1813 0
-799 -1814 0
-800 -1815 0
-801 -826 0
-802 -827 0
-803 -828 0
-804 -829 0
-805 -830 0
-801 -976 0
-802 -977 0
-803 -978 0
-804 -979 0
-805 -980 0
-801 -1111 0
-802 -1112 0
-803 -1113 0
-804 -1114 0
-805 -1115 0
-801 -1331 0
-802 -1332 0
-803 -1333 0
-804 -1334 0
-805 -1335 0
-801 -1456 0
-802 -1457 0
-803 -1458 0
-804 -1459 0
-805 -1460 0
-801 -1466 0
-802 -1467 0
-803 -1468 0
-804 -1469 0
-805 -1470 0
-801 -1591 0
-802 -1592 0
-803 -1593 0
-804 -1594 0
-805 -1595 0
-801 -1606 0
-802 -1607 0
-803 -1608 0
-804 -1609 0
-805 -1610 0
-801 -1656 0
-802 -1657 0
-803 -1658 0
-804 -1659 0
-805 -1660 0
-801 -1726 0
-802 -1727 0
-803 -1728 0
-804 -1729 0
-805 -1730 0
-801 -1816 0
-802 -1817 0
-803 -1818 0
-804 -1819 0
-805 -1820 0
-806 -831 0
-807 -832 0
-808 -833 0
-809 -834 0
-810 -835 0
-806 -1121 0
-807 -1122 0
-808 -1123 0
-809 -1124 0
-810 -1125 0
-806 -1336 0
-807 -1337 0
-808 -1338 0
-809 -1339 0
-810 -1340 0
-806 -1471 0
-807 -1472 0
-808 -1473 0
-809 -1474 0
-810 -1475 0
-806 -1596 0
-807 -1597 0
-808 -1598 0
-809 -1599 0
-810 -1600 0
-806 -1611 0
-807 -1612 0
-808 -1613 0
-809 -1614 0
-810 -1615 0
-806 -1761 0
-807 -1762 0
-808 -1763 0
-809 -1764 0
-810 -1765 0
-811 -836 0
-812 -837 0
-813 -838 0
-814 -839 0
-815 -840 0
-811 -961 0
-812 -962 0
-813 -963 0
-814 -964 0
-815 -965 0
-811 -1221 0
-812 -1222 0
-813 -1223 0
-814 -1224 0
-815 -1225 0
-811 -1351 0
-812 -1352 0
-813 -1353 0
-814 -1354 0
-815 -1355 0
-811 -1601 0
-812 -1602 0
-813 -1603 0
-814 -1604 0
-815 -1605 0
-811 -1616 0
-812 -1617 0
-813 -1618 0
-814 -1619 0
-815 -1620 0
-811 -1711 0
-812 -1712 0
-813 -1713 0
-814 -1714 0
-815 -1715 0
-811 -1761 0
-812 -1762 0
-813 -1763 0
-814 -1764 0
-815 -1765 0
-811 -1766 0
-812 -1767 0
-813 -1768 0
-814 -1769 0
-815 -1770 0
-811 -1821 0
-812 -1822 0
-813 -1823 0
-814 -1824 0
-815 -1825 0
-816 -926 0
-817 -927 0
-818 -928 0
-819 -929 0
-820 -930 0
-816 -981 0
-817 -982 0
-818 -983 0
-819 -984 0
-820 -985 0
-816 -1341 0
-817 -1342 0
-818 -1343 0
-819 -1344 0
-820 -1345 0
-816 -1476 0
-817 -1477 0
-818 -1478 0
-819 -1479 0
-820 -1480 0
-816 -1661 0
-817 -1662 0
-818 -1663 0
-819 -1664 0
-820 -1665 0
-821 -931 0
-822 -932 0
-823 -933 0
-824 -934 0
-825 -935 0
-821 -966 0
-822 -967 0
-823 -968 0
-824 -969 0
-825 -970 0
-821 -1356 0
-822 -1357 0
-823 -1358 0
-824 -1359 0
-825 -1360 0
-821 -1461 0
-822 -1462 0
-823 -1463 0
-824 -1464 0
-825 -1465 0
-821 -1656 0
-822 -1657 0
-823 -1658 0
-824 -1659 0
-825 -1660 0
-821 -1766 0
-822 -1767 0
-823 -1768 0
-824 -1769 0
-825 -1770 0
-826 -841 0
-827 -842 0
-828 -843 0
-829 -844 0
-830 -845 0
-826 -986 0
-827 -987 0
-828 -988 0
-829 -989 0
-830 -990 0
-826 -1226 0
-827 -1227 0
-828 -1228 0
-829 -1229 0
-830 -1230 0
-826 -1346 0
-827 -1347 0
-828 -1348 0
-829 -1349 0
-830 -1350 0
-826 -1606 0
-827 -1607 0
-828 -1608 0
-829 -1609 0
-830 -1610 0
-826 -1621 0
-827 -1622 0
-828 -1623 0
-829 -1624 0
-830 -1625 0
-826 -1771 0
-827 -1772 0
-828 -1773 0
-829 -1774 0
-830 -1775 0
-826 -1826 0
-827 -1827 0
-828 -1828 0
-829 -1829 0
-830 -1830 0
-831 -846 0
-832 -847 0
-833 -848 0
-834 -849 0
-835 -850 0
-831 -1116 0
-832 -1117 0
-833 -1118 0
-834 -1119 0
-835 -1120 0
-831 -1361 0
-832 -1362 0
-833 -1363 0
-834 -1364 0
-835 -1365 0
-831 -1466 0
-832 -1467 0
-833 -1468 0
-834 -1469 0
-835 -1470 0
-831 -1611 0
-832 -1612 0
-833 -1613 0
-834 -1614 0
-835 -1615 0
-831 -1626 0
-832 -1627 0
-833 -1628 0
-834 -1629 0
-835 -1630 0
-831 -1711 0
-832 -1712 0
-833 -1713 0
-834 -1714 0
-835 -1715 0
-831 -1771 0
-832 -1772 0
-833 -1773 0
-834 -1774 0
-835 -1775 0
-836 -851 0
-837 -852 0
-838 -853 0
-839 -854 0
-840 -855 0
-836 -971 0
-837 -972 0
-838 -973 0
-839 -974 0
-840 -975 0
-836 -1366 0
-837 -1367 0
-838 -1368 0
-839 -1369 0
-840 -1370 0
-836 -1471 0
-837 -1472 0
-838 -1473 0
-839 -1474 0
-840 -1475 0
-836 -1481 0
-837 -1482 0
-838 -1483 0
-839 -1484 0
-840 -1485 0
-836 -1616 0
-837 -1617 0
-838 -1618 0
-839 -1619 0
-840 -1620 0
-836 -1631 0
-837 -1632 0
-838 -1633 0
-839 -1634 0
-840 -1635 0
-836 -1661 0
-837 -1662 0
-838 -1663 0
-839 -1664 0
-840 -1665 0
-836 -1731 0
-837 -1732 0
-838 -1733 0
-839 -1734 0
-840 -1735 0
-836 -1831 0
-837 -1832 0
-838 -1833 0
-839 -1834 0
-840 -1835 0
-841 -936 0
-842 -937 0
-843 -938 0
-844 -939 0
-845 -940 0
-841 -1121 0
-842 -1122 0
-843 -1123 0
-844 -1124 0
-845 -1125 0
-841 -1351 0
-842 -1352 0
-843 -1353 0
-844 -1354 0
-845 -1355 0
-841 -1476 0
-842 -1477 0
-843 -1478 0
-844 -1479 0
-845 -1480 0
-841 -1486 0
-842 -1487 0
-843 -1488 0
-844 -1489 0
-845 -1490 0
-841 -1621 0
-842 -1622 0
-843 -1623 0
-844 -1624 0
-845 -1625 0
-841 -1636 0
-842 -1637 0
-843 -1638 0
-844 -1639 0
-845 -1640 0
-841 -1666 0
-842 -1667 0
-843 -1668 0
-844 -1669 0
-845 -1670 0
-841 -1731 0
-842 -1732 0
-843 -1733 0
-844 -1734 0
-845 -1735 0
-841 -1836 0
-842 -1837 0
-843 -1838 0
-844 -1839 0
-845 -1840 0
-846 -1356 0
-847 -1357 0
-848 -1358 0
-849 -1359 0
-850 -1360 0
-846 -1431 0
-847 -1432 0
-848 -1433 0
-849 -1434 0
-850 -1435 0
-846 -1551 0
-847 -1552 0
-848 -1553 0
-849 -1554 0
-850 -1555 0
-846 -1626 0
-847 -1627 0
-848 -1628 0
-849 -1629 0
-850 -1630 0
-846 -1716 0
-847 -1717 0
-848 -1718 0
-849 -1719 0
-850 -1720 0
-846 -1776 0
-847 -1777 0
-848 -1778 0
-849 -1779 0
-850 -1780 0
-851 -981 0
-852 -982 0
-853 -983 0
-854 -984 0
-855 -985 0
-851 -1226 0
-852 -1227 0
-853 -1228 0
-854 -1229 0
-855 -1230 0
-851 -1311 0
-852 -1312 0
-853 -1313 0
-854 -1314 0
-855 -1315 0
-851 -1556 0
-852 -1557 0
-853 -1558 0
-854 -1559 0
-855 -1560 0
-851 -1631 0
-852 -1632 0
-853 -1633 0
-854 -1634 0
-855 -1635 0
-851 -1701 0
-852 -1702 0
-853 -1703 0
-854 -1704 0
-855 -1705 0
-851 -1776 0
-852 -1777 0
-853 -1778 0
-854 -1779 0
-855 -1780 0
-851 -1781 0
-852 -1782 0
-853 -1783 0
-854 -1784 0
-855 -1785 0
-851 -1841 0
-852 -1842 0
-853 -1843 0
-854 -1844 0
-855 -1845 0
-856 -931 0
-857 -932 0
-858 -933 0
-859 -934 0
-860 -935 0
-856 -941 0
-857 -942 0
-858 -943 0
-859 -944 0
-860 -945 0
-856 -1361 0
-857 -1362 0
-858 -1363 0
-859 -1364 0
-860 -1365 0
-856 -1436 0
-857 -1437 0
-858 -1438 0
-859 -1439 0
-860 -1440 0
-856 -1641 0
-857 -1642 0
-858 -1643 0
-859 -1644 0
-860 -1645 0
-856 -1736 0
-857 -1737 0
-858 -1738 0
-859 -1739 0
-860 -1740 0
-861 -1276 0
-862 -1277 0
-863 -1278 0
-864 -1279 0
-865 -1280 0
-861 -1426 0
-862 -1427 0
-863 -1428 0
-864 -1429 0
-865 -1430 0
-861 -1521 0
-862 -1522 0
-863 -1523 0
-864 -1524 0
-865 -1525 0
-861 -1736 0
-862 -1737 0
-863 -1738 0
-864 -1739 0
-865 -1740 0
-866 -1381 0
-867 -1382 0
-868 -1383 0
-869 -1384 0
-870 -1385 0
-866 -1741 0
-867 -1742 0
-868 -1743 0
-869 -1744 0
-870 -1745 0
-871 -1246 0
-872 -1247 0
-873 -1248 0
-874 -1249 0
-875 -1250 0
-871 -1376 0
-872 -1377 0
-873 -1378 0
-874 -1379 0
-875 -1380 0
-871 -1746 0
-872 -1747 0
-873 -1748 0
-874 -1749 0
-875 -1750 0
-876 -1086 0
-877 -1087 0
-878 -1088 0
-879 -1089 0
-880 -1090 0
-876 -1251 0
-877 -1252 0
-878 -1253 0
-879 -1254 0
-880 -1255 0
-876 -1391 0
-877 -1392 0
-878 -1393 0
-879 -1394 0
-880 -1395 0
-876 -1526 0
-877 -1527 0
-878 -1528 0
-879 -1529 0
-880 -1530 0
-881 -1096 0
-882 -1097 0
-883 -1098 0
-884 -1099 0
-885 -1100 0
-881 -1236 0
-882 -1237 0
-883 -1238 0
-884 -1239 0
-885 -1240 0
-881 -1386 0
-882 -1387 0
-883 -1388 0
-884 -1389 0
-885 -1390 0
-881 -1531 0
-882 -1532 0
-883 -1533 0
-884 -1534 0
-885 -1535 0
-881 -1751 0
-882 -1752 0
-883 -1753 0
-884 -1754 0
-885 -1755 0
-886 -1241 0
-887 -1242 0
-888 -1243 0
-889 -1244 0
-890 -1245 0
-886 -1401 0
-887 -1402 0
-888 -1403 0
-889 -1404 0
-890 -1405 0
-886 -1756 0
-887 -1757 0
-888 -1758 0
-889 -1759 0
-890 -1760 0
-886 -1846 0
-887 -1847 0
-888 -1848 0
-889 -1849 0
-890 -1850 0
-891 -1266 0
-892 -1267 0
-893 -1268 0
-894 -1269 0
-895 -1270 0
-891 -1396 0
-892 -1397 0
-893 -1398 0
-894 -1399 0
-895 -1400 0
-891 -1761 0
-892 -1762 0
-893 -1763 0
-894 -1764 0
-895 -1765 0
-891 -1851 0
-892 -1852 0
-893 -1853 0
-894 -1854 0
-895 -1855 0
-896 -1091 0
-897 -1092 0
-898 -1093 0
-899 -1094 0
-900 -1095 0
-896 -1271 0
-897 -1272 0
-898 -1273 0
-899 -1274 0
-900 -1275 0
-896 -1411 0
-897 -1412 0
-898 -1413 0
-899 -1414 0
-900 -1415 0
-896 -1536 0
-897 -1537 0
-898 -1538 0
-899 -1539 0
-900 -1540 0
-896 -1766 0
-897 -1767 0
-898 -1768 0
-899 -1769 0
-900 -1770 0
-901 -1101 0
-902 -1102 0
-903 -1103 0
-904 -1104 0
-905 -1105 0
-901 -1256 0
-902 -1257 0
-903 -1258 0
-904 -1259 0
-905 -1260 0
-901 -1406 0
-902 -1407 0
-903 -1408 0
-904 -1409 0
-905 -1410 0
-901 -1541 0
-902 -1542 0
-903 -1543 0
-904 -1544 0
-905 -1545 0
-906 -1261 0
-907 -1262 0
-908 -1263 0
-909 -1264 0
-910 -1265 0
-906 -1421 0
-907 -1422 0
-908 -1423 0
-909 -1424 0
-910 -1425 0
-906 -1771 0
-907 -1772 0
-908 -1773 0
-909 -1774 0
-910 -1775 0
-911 -1416 0
-912 -1417 0
-913 -1418 0
-914 -1419 0
-915 -1420 0
-911 -1776 0
-912 -1777 0
-913 -1778 0
-914 -1779 0
-915 -1780 0
-916 -1231 0
-917 -1232 0
-918 -1233 0
-919 -1234 0
-920 -1235 0
-916 -1371 0
-917 -1372 0
-918 -1373 0
-919 -1374 0
-920 -1375 0
-916 -1546 0
-917 -1547 0
-918 -1548 0
-919 -1549 0
-920 -1550 0
-916 -1781 0
-917 -1782 0
-918 -1783 0
-919 -1784 0
-920 -1785 0
-936 -1011 0
-937 -1012 0
-938 -1013 0
-939 -1014 0
-940 -1015 0
-936 -1076 0
-937 -1077 0
-938 -1078 0
-939 -1079 0
-940 -1080 0
-936 -1666 0
-937 -1667 0
-938 -1668 0
-939 -1669 0
-940 -1670 0
-941 -996 0
-942 -997 0
-943 -998 0
-944 -999 0
-945 -1000 0
-941 -1021 0
-942 -1022 0
-943 -1023 0
-944 -1024 0
-945 -1025 0
-941 -1236 0
-942 -1237 0
-943 -1238 0
-944 -1239 0
-945 -1240 0
-941 -1496 0
-942 -1497 0
-943 -1498 0
-944 -1499 0
-945 -1500 0
-941 -1641 0
-942 -1642 0
-943 -1643 0
-944 -1644 0
-945 -1645 0
-946 -1001 0
-947 -1002 0
-948 -1003 0
-949 -1004 0
-950 -1005 0
-946 -1026 0
-947 -1027 0
-948 -1028 0
-949 -1029 0
-950 -1030 0
-946 -1231 0
-947 -1232 0
-948 -1233 0
-949 -1234 0
-950 -1235 0
-946 -1241 0
-947 -1242 0
-948 -1243 0
-949 -1244 0
-950 -1245 0
-946 -1491 0
-947 -1492 0
-948 -1493 0
-949 -1494 0
-950 -1495 0
-946 -1646 0
-947 -1647 0
-948 -1648 0
-949 -1649 0
-950 -1650 0
-951 -1011 0
-952 -1012 0
-953 -1013 0
-954 -1014 0
-955 -1015 0
-951 -1036 0
-952 -1037 0
-953 -1038 0
-954 -1039 0
-955 -1040 0
-951 -1651 0
-952 -1652 0
-953 -1653 0
-954 -1654 0
-955 -1655 0
-956 -1016 0
-957 -1017 0
-958 -1018 0
-959 -1019 0
-960 -1020 0
-956 -1041 0
-957 -1042 0
-958 -1043 0
-959 -1044 0
-960 -1045 0
-956 -1646 0
-957 -1647 0
-958 -1648 0
-959 -1649 0
-960 -1650 0
-961 -1026 0
-962 -1027 0
-963 -1028 0
-964 -1029 0
-965 -1030 0
-961 -1051 0
-962 -1052 0
-963 -1053 0
-964 -1054 0
-965 -1055 0
-961 -1246 0
-962 -1247 0
-963 -1248 0
-964 -1249 0
-965 -1250 0
-961 -1256 0
-962 -1257 0
-963 -1258 0
-964 -1259 0
-965 -1260 0
-961 -1506 0
-962 -1507 0
-963 -1508 0
-964 -1509 0
-965 -1510 0
-961 -1651 0
-962 -1652 0
-963 -1653 0
-964 -1654 0
-965 -1655 0
-961 -1851 0
-962 -1852 0
-963 -1853 0
-964 -1854 0
-965 -1855 0
-966 -1031 0
-967 -1032 0
-968 -1033 0
-969 -1034 0
-970 -1035 0
-966 -1056 0
-967 -1057 0
-968 -1058 0
-969 -1059 0
-970 -1060 0
-966 -1251 0
-967 -1252 0
-968 -1253 0
-969 -1254 0
-970 -1255 0
-966 -1261 0
-967 -1262 0
-968 -1263 0
-969 -1264 0
-970 -1265 0
-966 -1501 0
-967 -1502 0
-968 -1503 0
-969 -1504 0
-970 -1505 0
-966 -1656 0
-967 -1657 0
-968 -1658 0
-969 -1659 0
-970 -1660 0
-966 -1846 0
-967 -1847 0
-968 -1848 0
-969 -1849 0
-970 -1850 0
-971 -1041 0
-972 -1042 0
-973 -1043 0
-974 -1044 0
-975 -1045 0
-971 -1066 0
-972 -1067 0
-973 -1068 0
-974 -1069 0
-975 -1070 0
-971 -1661 0
-972 -1662 0
-973 -1663 0
-974 -1664 0
-975 -1665 0
-976 -1046 0
-977 -1047 0
-978 -1048 0
-979 -1049 0
-980 -1050 0
-976 -1071 0
-977 -1072 0
-978 -1073 0
-979 -1074 0
-980 -1075 0
-976 -1656 0
-977 -1657 0
-978 -1658 0
-979 -1659 0
-980 -1660 0
-981 -1056 0
-982 -1057 0
-983 -1058 0
-984 -1059 0
-985 -1060 0
-981 -1081 0
-982 -1082 0
-983 -1083 0
-984 -1084 0
-985 -1085 0
-981 -1266 0
-982 -1267 0
-983 -1268 0
-984 -1269 0
-985 -1270 0
-981 -1276 0
-982 -1277 0
-983 -1278 0
-984 -1279 0
-985 -1280 0
-981 -1516 0
-982 -1517 0
-983 -1518 0
-984 -1519 0
-985 -1520 0
-981 -1661 0
-982 -1662 0
-983 -1663 0
-984 -1664 0
-985 -1665 0
-986 -996 0
-987 -997 0
-988 -998 0
-989 -999 0
-990 -1000 0
-986 -1061 0
-987 -1062 0
-988 -1063 0
-989 -1064 0
-990 -1065 0
-986 -1271 0
-987 -1272 0
-988 -1273 0
-989 -1274 0
-990 -1275 0
-986 -1511 0
-987 -1512 0
-988 -1513 0
-989 -1514 0
-990 -1515 0
-986 -1666 0
-987 -1667 0
-988 -1668 0
-989 -1669 0
-990 -1670 0
-991 -1006 0
-992 -1007 0
-993 -1008 0
-994 -1009 0
-995 -1010 0
-991 -1071 0
-992 -1072 0
-993 -1073 0
-994 -1074 0
-995 -1075 0
-991 -1641 0
-992 -1642 0
-993 -1643 0
-994 -1644 0
-995 -1645 0
-996 -1136 0
-997 -1137 0
-998 -1138 0
-999 -1139 0
-1000 -1140 0
-996 -1201 0
-997 -1202 0
-998 -1203 0
-999 -1204 0
-1000 -1205 0
-996 -1376 0
-997 -1377 0
-998 -1378 0
-999 -1379 0
-1000 -1380 0
-996 -1421 0
-997 -1422 0
-998 -1423 0
-999 -1424 0
-1000 -1425 0
-996 -1741 0
-997 -1742 0
-998 -1743 0
-999 -1744 0
-1000 -1745 0
-996 -1776 0
-997 -1777 0
-998 -1778 0
-999 -1779 0
-1000 -1780 0
-1001 -1636 0
-1002 -1637 0
-1003 -1638 0
-1004 -1639 0
-1005 -1640 0
-1001 -1781 0
-1002 -1782 0
-1003 -1783 0
-1004 -1784 0
-1005 -1785 0
-1006 -1211 0
-1007 -1212 0
-1008 -1213 0
-1009 -1214 0
-1010 -1215 0
-1006 -1571 0
-1007 -1572 0
-1008 -1573 0
-1009 -1574 0
-1010 -1575 0
-1006 -1741 0
-1007 -1742 0
-1008 -1743 0
-1009 -1744 0
-1010 -1745 0
-1011 -1131 0
-1012 -1132 0
-1013 -1133 0
-1014 -1134 0
-1015 -1135 0
-1011 -1146 0
-1012 -1147 0
-1013 -1148 0
-1014 -1149 0
-1015 -1150 0
-1011 -1371 0
-1012 -1372 0
-1013 -1373 0
-1014 -1374 0
-1015 -1375 0
-1011 -1386 0
-1012 -1387 0
-1013 -1388 0
-1014 -1389 0
-1015 -1390 0
-1016 -1156 0
-1017 -1157 0
-1018 -1158 0
-1019 -1159 0
-1020 -1160 0
-1016 -1561 0
-1017 -1562 0
-1018 -1563 0
-1019 -1564 0
-1020 -1565 0
-1016 -1746 0
-1017 -1747 0
-1018 -1748 0
-1019 -1749 0
-1020 -1750 0
-1021 -1586 0
-1022 -1587 0
-1023 -1588 0
-1024 -1589 0
-1025 -1590 0
-1021 -1751 0
-1022 -1752 0
-1023 -1753 0
-1024 -1754 0
-1025 -1755 0
-1026 -1141 0
-1027 -1142 0
-1028 -1143 0
-1029 -1144 0
-1030 -1145 0
-1026 -1166 0
-1027 -1167 0
-1028 -1168 0
-1029 -1169 0
-1030 -1170 0
-1026 -1381 0
-1027 -1382 0
-1028 -1383 0
-1029 -1384 0
-1030 -1385 0
-1026 -1396 0
-1027 -1397 0
-1028 -1398 0
-1029 -1399 0
-1030 -1400 0
-1026 -1746 0
-1027 -1747 0
-1028 -1748 0
-1029 -1749 0
-1030 -1750 0
-1026 -1756 0
-1027 -1757 0
-1028 -1758 0
-1029 -1759 0
-1030 -1760 0
-1031 -1576 0
-1032 -1577 0
-1033 -1578 0
-1034 -1579 0
-1035 -1580 0
-1036 -1151 0
-1037 -1152 0
-1038 -1153 0
-1039 -1154 0
-1040 -1155 0
-1036 -1601 0
-1037 -1602 0
-1038 -1603 0
-1039 -1604 0
-1040 -1605 0
-1036 -1756 0
-1037 -1757 0
-1038 -1758 0
-1039 -1759 0
-1040 -1760 0
-1041 -1161 0
-1042 -1162 0
-1043 -1163 0
-1044 -1164 0
-1045 -1165 0
-1041 -1176 0
-1042 -1177 0
-1043 -1178 0
-1044 -1179 0
-1045 -1180 0
-1041 -1391 0
-1042 -1392 0
-1043 -1393 0
-1044 -1394 0
-1045 -1395 0
-1041 -1406 0
-1042 -1407 0
-1043 -1408 0
-1044 -1409 0
-1045 -1410 0
-1046 -1186 0
-1047 -1187 0
-1048 -1188 0
-1049 -1189 0
-1050 -1190 0
-1046 -1591 0
-1047 -1592 0
-1048 -1593 0
-1049 -1594 0
-1050 -1595 0
-1046 -1761 0
-1047 -1762 0
-1048 -1763 0
-1049 -1764 0
-1050 -1765 0
-1051 -1616 0
-1052 -1617 0
-1053 -1618 0
-1054 -1619 0
-1055 -1620 0
-1056 -1171 0
-1057 -1172 0
-1058 -1173 0
-1059 -1174 0
-1060 -1175 0
-1056 -1196 0
-1057 -1197 0
-1058 -1198 0
-1059 -1199 0
-1060 -1200 0
-1056 -1401 0
-1057 -1402 0
-1058 -1403 0
-1059 -1404 0
-1060 -1405 0
-1056 -1416 0
-1057 -1417 0
-1058 -1418 0
-1059 -1419 0
-1060 -1420 0
-1056 -1761 0
-1057 -1762 0
-1058 -1763 0
-1059 -1764 0
-1060 -1765 0
-1056 -1771 0
-1057 -1772 0
-1058 -1773 0
-1059 -1774 0
-1060 -1775 0
-1061 -1606 0
-1062 -1607 0
-1063 -1608 0
-1064 -1609 0
-1065 -1610 0
-1061 -1766 0
-1062 -1767 0
-1063 -1768 0
-1064 -1769 0
-1065 -1770 0
-1066 -1181 0
-1067 -1182 0
-1068 -1183 0
-1069 -1184 0
-1070 -1185 0
-1066 -1631 0
-1067 -1632 0
-1068 -1633 0
-1069 -1634 0
-1070 -1635 0
-1066 -1771 0
-1067 -1772 0
-1068 -1773 0
-1069 -1774 0
-1070 -1775 0
-1071 -1191 0
-1072 -1192 0
-1073 -1193 0
-1074 -1194 0
-1075 -1195 0
-1071 -1206 0
-1072 -1207 0
-1073 -1208 0
-1074 -1209 0
-1075 -1210 0
-1071 -1411 0
-1072 -1412 0
-1073 -1413 0
-1074 -1414 0
-1075 -1415 0
-1071 -1426 0
-1072 -1427 0
-1073 -1428 0
-1074 -1429 0
-1075 -1430 0
-1076 -1126 0
-1077 -1127 0
-1078 -1128 0
-1079 -1129 0
-1080 -1130 0
-1076 -1621 0
-1077 -1622 0
-1078 -1623 0
-1079 -1624 0
-1080 -1625 0
-1076 -1776 0
-1077 -1777 0
-1078 -1778 0
-1079 -1779 0
-1080 -1780 0
-1081 -1556 0
-1082 -1557 0
-1083 -1558 0
-1084 -1559 0
-1085 -1560 0
-1081 -1736 0
-1082 -1737 0
-1083 -1738 0
-1084 -1739 0
-1085 -1740 0
-1086 -1441 0
-1087 -1442 0
-1088 -1443 0
-1089 -1444 0
-1090 -1445 0
-1091 -1461 0
-1092 -1462 0
-1093 -1463 0
-1094 -1464 0
-1095 -1465 0
-1096 -1456 0
-1097 -1457 0
-1098 -1458 0
-1099 -1459 0
-1100 -1460 0
-1101 -1476 0
-1102 -1477 0
-1103 -1478 0
-1104 -1479 0
-1105 -1480 0
-1106 -1281 0
-1107 -1282 0
-1108 -1283 0
-1109 -1284 0
-1110 -1285 0
-1106 -1391 0
-1107 -1392 0
-1108 -1393 0
-1109 -1394 0
-1110 -1395 0
-1111 -1296 0
-1112 -1297 0
-1113 -1298 0
-1114 -1299 0
-1115 -1300 0
-1111 -1386 0
-1112 -1387 0
-1113 -1388 0
-1114 -1389 0
-1115 -1390 0
-1111 -1706 0
-1112 -1707 0
-1113 -1708 0
-1114 -1709 0
-1115 -1710 0
-1116 -1291 0
-1117 -1292 0
-1118 -1293 0
-1119 -1294 0
-1120 -1295 0
-1116 -1411 0
-1117 -1412 0
-1118 -1413 0
-1119 -1414 0
-1120 -1415 0
-1116 -1711 0
-1117 -1712 0
-1118 -1713 0
-1119 -1714 0
-1120 -1715 0
-1121 -1306 0
-1122 -1307 0
-1123 -1308 0
-1124 -1309 0
-1125 -1310 0
-1121 -1406 0
-1122 -1407 0
-1123 -1408 0
-1124 -1409 0
-1125 -1410 0
-1126 -1316 0
-1127 -1317 0
-1128 -1318 0
-1129 -1319 0
-1130 -1320 0
-1126 -1481 0
-1127 -1482 0
-1128 -1483 0
-1129 -1484 0
-1130 -1485 0
-1126 -1776 0
-1127 -1777 0
-1128 -1778 0
-1129 -1779 0
-1130 -1780 0
-1131 -1281 0
-1132 -1282 0
-1133 -1283 0
-1134 -1284 0
-1135 -1285 0
-1131 -1366 0
-1132 -1367 0
-1133 -1368 0
-1134 -1369 0
-1135 -1370 0
-1131 -1841 0
-1132 -1842 0
-1133 -1843 0
-1134 -1844 0
-1135 -1845 0
-1136 -1326 0
-1137 -1327 0
-1138 -1328 0
-1139 -1329 0
-1140 -1330 0
-1136 -1431 0
-1137 -1432 0
-1138 -1433 0
-1139 -1434 0
-1140 -1435 0
-1136 -1676 0
-1137 -1677 0
-1138 -1678 0
-1139 -1679 0
-1140 -1680 0
-1136 -1741 0
-1137 -1742 0
-1138 -1743 0
-1139 -1744 0
-1140 -1745 0
-1136 -1796 0
-1137 -1797 0
-1138 -1798 0
-1139 -1799 0
-1140 -1800 0
-1141 -1311 0
-1142 -1312 0
-1143 -1313 0
-1144 -1314 0
-1145 -1315 0
-1141 -1446 0
-1142 -1447 0
-1143 -1448 0
-1144 -1449 0
-1145 -1450 0
-1141 -1671 0
-1142 -1672 0
-1143 -1673 0
-1144 -1674 0
-1145 -1675 0
-1141 -1746 0
-1142 -1747 0
-1143 -1748 0
-1144 -1749 0
-1145 -1750 0
-1141 -1791 0
-1142 -1792 0
-1143 -1793 0
-1144 -1794 0
-1145 -1795 0
-1146 -1286 0
-1147 -1287 0
-1148 -1288 0
-1149 -1289 0
-1150 -1290 0
-1146 -1331 0
-1147 -1332 0
-1148 -1333 0
-1149 -1334 0
-1150 -1335 0
-1146 -1806 0
-1147 -1807 0
-1148 -1808 0
-1149 -1809 0
-1150 -1810 0
-1151 -1321 0
-1152 -1322 0
-1153 -1323 0
-1154 -1324 0
-1155 -1325 0
-1151 -1456 0
-1152 -1457 0
-1153 -1458 0
-1154 -1459 0
-1155 -1460 0
-1151 -1756 0
-1152 -1757 0
-1153 -1758 0
-1154 -1759 0
-1155 -1760 0
-1156 -1336 0
-1157 -1337 0
-1158 -1338 0
-1159 -1339 0
-1160 -1340 0
-1156 -1441 0
-1157 -1442 0
-1158 -1443 0
-1159 -1444 0
-1160 -1445 0
-1156 -1746 0
-1157 -1747 0
-1158 -1748 0
-1159 -1749 0
-1160 -1750 0
-1161 -1291 0
-1162 -1292 0
-1163 -1293 0
-1164 -1294 0
-1165 -1295 0
-1161 -1326 0
-1162 -1327 0
-1163 -1328 0
-1164 -1329 0
-1165 -1330 0
-1161 -1801 0
-1162 -1802 0
-1163 -1803 0
-1164 -1804 0
-1165 -1805 0
-1166 -1346 0
-1167 -1347 0
-1168 -1348 0
-1169 -1349 0
-1170 -1350 0
-1166 -1451 0
-1167 -1452 0
-1168 -1453 0
-1169 -1454 0
-1170 -1455 0
-1166 -1686 0
-1167 -1687 0
-1168 -1688 0
-1169 -1689 0
-1170 -1690 0
-1166 -1756 0
-1167 -1757 0
-1168 -1758 0
-1169 -1759 0
-1170 -1760 0
-1166 -1816 0
-1167 -1817 0
-1168 -1818 0
-1169 -1819 0
-1170 -1820 0
-1171 -1331 0
-1172 -1332 0
-1173 -1333 0
-1174 -1334 0
-1175 -1335 0
-1171 -1466 0
-1172 -1467 0
-1173 -1468 0
-1174 -1469 0
-1175 -1470 0
-1171 -1681 0
-1172 -1682 0
-1173 -1683 0
-1174 -1684 0
-1175 -1685 0
-1171 -1761 0
-1172 -1762 0
-1173 -1763 0
-1174 -1764 0
-1175 -1765 0
-1171 -1811 0
-1172 -1812 0
-1173 -1813 0
-1174 -1814 0
-1175 -1815 0
-1176 -1296 0
-1177 -1297 0
-1178 -1298 0
-1179 -1299 0
-1180 -1300 0
-1176 -1351 0
-1177 -1352 0
-1178 -1353 0
-1179 -1354 0
-1180 -1355 0
-1176 -1826 0
-1177 -1827 0
-1178 -1828 0
-1179 -1829 0
-1180 -1830 0
-1181 -1341 0
-1182 -1342 0
-1183 -1343 0
-1184 -1344 0
-1185 -1345 0
-1181 -1476 0
-1182 -1477 0
-1183 -1478 0
-1184 -1479 0
-1185 -1480 0
-1181 -1771 0
-1182 -1772 0
-1183 -1773 0
-1184 -1774 0
-1185 -1775 0
-1186 -1356 0
-1187 -1357 0
-1188 -1358 0
-1189 -1359 0
-1190 -1360 0
-1186 -1461 0
-1187 -1462 0
-1188 -1463 0
-1189 -1464 0
-1190 -1465 0
-1186 -1761 0
-1187 -1762 0
-1188 -1763 0
-1189 -1764 0
-1190 -1765 0
-1191 -1301 0
-1192 -1302 0
-1193 -1303 0
-1194 -1304 0
-1195 -1305 0
-1191 -1346 0
-1192 -1347 0
-1193 -1348 0
-1194 -1349 0
-1195 -1350 0
-1191 -1821 0
-1192 -1822 0
-1193 -1823 0
-1194 -1824 0
-1195 -1825 0
-1196 -1366 0
-1197 -1367 0
-1198 -1368 0
-1199 -1369 0
-1200 -1370 0
-1196 -1471 0
-1197 -1472 0
-1198 -1473 0
-1199 -1474 0
-1200 -1475 0
-1196 -1696 0
-1197 -1697 0
-1198 -1698 0
-1199 -1699 0
-1200 -1700 0
-1196 -1771 0
-1197 -1772 0
-1198 -1773 0
-1199 -1774 0
-1200 -1775 0
-1196 -1836 0
-1197 -1837 0
-1198 -1838 0
-1199 -1839 0
-1200 -1840 0
-1201 -1351 0
-1202 -1352 0
-1203 -1353 0
-1204 -1354 0
-1205 -1355 0
-1201 -1486 0
-1202 -1487 0
-1203 -1488 0
-1204 -1489 0
-1205 -1490 0
-1201 -1691 0
-1202 -1692 0
-1203 -1693 0
-1204 -1694 0
-1205 -1695 0
-1201 -1776 0
-1202 -1777 0
-1203 -1778 0
-1204 -1779 0
-1205 -1780 0
-1201 -1831 0
-1202 -1832 0
-1203 -1833 0
-1204 -1834 0
-1205 -1835 0
-1206 -1306 0
-1207 -1307 0
-1208 -1308 0
-1209 -1309 0
-1210 -1310 0
-1206 -1311 0
-1207 -1312 0
-1208 -1313 0
-1209 -1314 0
-1210 -1315 0
-1206 -1786 0
-1207 -1787 0
-1208 -1788 0
-1209 -1789 0
-1210 -1790 0
-1211 -1361 0
-1212 -1362 0
-1213 -1363 0
-1214 -1364 0
-1215 -1365 0
-1211 -1436 0
-1212 -1437 0
-1213 -1438 0
-1214 -1439 0
-1215 -1440 0
-1211 -1741 0
-1212 -1742 0
-1213 -1743 0
-1214 -1744 0
-1215 -1745 0
-1216 -2381 0
-1217 -2382 0
-1218 -2383 0
-1219 -2384 0
-1220 -2385 0
-1221 -2391 0
-1222 -2392 0
-1223 -2393 0
-1224 -2394 0
-1225 -2395 0
-1226 -2401 0
-1227 -2402 0
-1228 -2403 0
-1229 -2404 0
-1230 -2405 0
-1231 -1286 0
-1232 -1287 0
-1233 -1288 0
-1234 -1289 0
-1235 -1290 0
-1231 -1716 0
-1232 -1717 0
-1233 -1718 0
-1234 -1719 0
-1235 -1720 0
-1231 -1781 0
-1232 -1782 0
-1233 -1783 0
-1234 -1784 0
-1235 -1785 0
-1236 -1281 0
-1237 -1282 0
-1238 -1283 0
-1239 -1284 0
-1240 -1285 0
-1236 -1751 0
-1237 -1752 0
-1238 -1753 0
-1239 -1754 0
-1240 -1755 0
-1241 -1501 0
-1242 -1502 0
-1243 -1503 0
-1244 -1504 0
-1245 -1505 0
-1241 -1676 0
-1242 -1677 0
-1243 -1678 0
-1244 -1679 0
-1245 -1680 0
-1241 -1756 0
-1242 -1757 0
-1243 -1758 0
-1244 -1759 0
-1245 -1760 0
-1246 -1496 0
-1247 -1497 0
-1248 -1498 0
-1249 -1499 0
-1250 -1500 0
-1246 -1681 0
-1247 -1682 0
-1248 -1683 0
-1249 -1684 0
-1250 -1685 0
-1246 -1746 0
-1247 -1747 0
-1248 -1748 0
-1249 -1749 0
-1250 -1750 0
-1251 -1296 0
-1252 -1297 0
-1253 -1298 0
-1254 -1299 0
-1255 -1300 0
-1251 -1706 0
-1252 -1707 0
-1253 -1708 0
-1254 -1709 0
-1255 -1710 0
-1251 -1846 0
-1252 -1847 0
-1253 -1848 0
-1254 -1849 0
-1255 -1850 0
-1256 -1291 0
-1257 -1292 0
-1258 -1293 0
-1259 -1294 0
-1260 -1295 0
-1256 -1711 0
-1257 -1712 0
-1258 -1713 0
-1259 -1714 0
-1260 -1715 0
-1256 -1851 0
-1257 -1852 0
-1258 -1853 0
-1259 -1854 0
-1260 -1855 0
-1261 -1511 0
-1262 -1512 0
-1263 -1513 0
-1264 -1514 0
-1265 -1515 0
-1261 -1686 0
-1262 -1687 0
-1263 -1688 0
-1264 -1689 0
-1265 -1690 0
-1261 -1771 0
-1262 -1772 0
-1263 -1773 0
-1264 -1774 0
-1265 -1775 0
-1266 -1506 0
-1267 -1507 0
-1268 -1508 0
-1269 -1509 0
-1270 -1510 0
-1266 -1691 0
-1267 -1692 0
-1268 -1693 0
-1269 -1694 0
-1270 -1695 0
-1266 -1761 0
-1267 -1762 0
-1268 -1763 0
-1269 -1764 0
-1270 -1765 0
-1271 -1306 0
-1272 -1307 0
-1273 -1308 0
-1274 -1309 0
-1275 -1310 0
-1271 -1766 0
-1272 -1767 0
-1273 -1768 0
-1274 -1769 0
-1275 -1770 0
-1276 -1301 0
-1277 -1302 0
-1278 -1303 0
-1279 -1304 0
-1280 -1305 0
-1276 -1701 0
-1277 -1702 0
-1278 -1703 0
-1279 -1704 0
-1280 -1705 0
-1276 -1736 0
-1277 -1737 0
-1278 -1738 0
-1279 -1739 0
-1280 -1740 0
-1281 -1641 0
-1282 -1642 0
-1283 -1643 0
-1284 -1644 0
-1285 -1645 0
-1286 -1646 0
-1287 -1647 0
-1288 -1648 0
-1289 -1649 0
-1290 -1650 0
-1291 -1651 0
-1292 -1652 0
-1293 -1653 0
-1294 -1654 0
-1295 -1655 0
-1296 -1656 0
-1297 -1657 0
-1298 -1658 0
-1299 -1659 0
-1300 -1660 0
-1301 -1661 0
-1302 -1662 0
-1303 -1663 0
-1304 -1664 0
-1305 -1665 0
-1306 -1666 0
-1307 -1667 0
-1308 -1668 0
-1309 -1669 0
-1310 -1670 0
-1311 -1486 0
-1312 -1487 0
-1313 -1488 0
-1314 -1489 0
-1315 -1490 0
-1311 -1526 0
-1312 -1527 0
-1313 -1528 0
-1314 -1529 0
-1315 -1530 0
-1311 -1721 0
-1312 -1722 0
-1313 -1723 0
-1314 -1724 0
-1315 -1725 0
-1316 -1431 0
-1317 -1432 0
-1318 -1433 0
-1319 -1434 0
-1320 -1435 0
-1316 -1441 0
-1317 -1442 0
-1318 -1443 0
-1319 -1444 0
-1320 -1445 0
-1316 -1676 0
-1317 -1677 0
-1318 -1678 0
-1319 -1679 0
-1320 -1680 0
-1321 -1436 0
-1322 -1437 0
-1323 -1438 0
-1324 -1439 0
-1325 -1440 0
-1321 -1446 0
-1322 -1447 0
-1323 -1448 0
-1324 -1449 0
-1325 -1450 0
-1321 -1671 0
-1322 -1672 0
-1323 -1673 0
-1324 -1674 0
-1325 -1675 0
-1326 -1451 0
-1327 -1452 0
-1328 -1453 0
-1329 -1454 0
-1330 -1455 0
-1326 -1521 0
-1327 -1522 0
-1328 -1523 0
-1329 -1524 0
-1330 -1525 0
-1326 -1721 0
-1327 -1722 0
-1328 -1723 0
-1329 -1724 0
-1330 -1725 0
-1331 -1446 0
-1332 -1447 0
-1333 -1448 0
-1334 -1449 0
-1335 -1450 0
-1331 -1536 0
-1332 -1537 0
-1333 -1538 0
-1334 -1539 0
-1335 -1540 0
-1331 -1726 0
-1332 -1727 0
-1333 -1728 0
-1334 -1729 0
-1335 -1730 0
-1336 -1451 0
-1337 -1452 0
-1338 -1453 0
-1339 -1454 0
-1340 -1455 0
-1336 -1461 0
-1337 -1462 0
-1338 -1463 0
-1339 -1464 0
-1340 -1465 0
-1336 -1686 0
-1337 -1687 0
-1338 -1688 0
-1339 -1689 0
-1340 -1690 0
-1341 -1456 0
-1342 -1457 0
-1343 -1458 0
-1344 -1459 0
-1345 -1460 0
-1341 -1466 0
-1342 -1467 0
-1343 -1468 0
-1344 -1469 0
-1345 -1470 0
-1341 -1681 0
-1342 -1682 0
-1343 -1683 0
-1344 -1684 0
-1345 -1685 0
-1346 -1471 0
-1347 -1472 0
-1348 -1473 0
-1349 -1474 0
-1350 -1475 0
-1346 -1531 0
-1347 -1532 0
-1348 -1533 0
-1349 -1534 0
-1350 -1535 0
-1346 -1726 0
-1347 -1727 0
-1348 -1728 0
-1349 -1729 0
-1350 -1730 0
-1351 -1466 0
-1352 -1467 0
-1353 -1468 0
-1354 -1469 0
-1355 -1470 0
-1351 -1546 0
-1352 -1547 0
-1353 -1548 0
-1354 -1549 0
-1355 -1550 0
-1351 -1731 0
-1352 -1732 0
-1353 -1733 0
-1354 -1734 0
-1355 -1735 0
-1356 -1471 0
-1357 -1472 0
-1358 -1473 0
-1359 -1474 0
-1360 -1475 0
-1356 -1481 0
-1357 -1482 0
-1358 -1483 0
-1359 -1484 0
-1360 -1485 0
-1356 -1696 0
-1357 -1697 0
-1358 -1698 0
-1359 -1699 0
-1360 -1700 0
-1361 -1476 0
-1362 -1477 0
-1363 -1478 0
-1364 -1479 0
-1365 -1480 0
-1361 -1486 0
-1362 -1487 0
-1363 -1488 0
-1364 -1489 0
-1365 -1490 0
-1361 -1691 0
-1362 -1692 0
-1363 -1693 0
-1364 -1694 0
-1365 -1695 0
-1366 -1431 0
-1367 -1432 0
-1368 -1433 0
-1369 -1434 0
-1370 -1435 0
-1366 -1541 0
-1367 -1542 0
-1368 -1543 0
-1369 -1544 0
-1370 -1545 0
-1366 -1731 0
-1367 -1732 0
-1368 -1733 0
-1369 -1734 0
-1370 -1735 0
-1371 -1426 0
-1372 -1427 0
-1373 -1428 0
-1374 -1429 0
-1375 -1430 0
-1371 -1521 0
-1372 -1522 0
-1373 -1523 0
-1374 -1524 0
-1375 -1525 0
-1376 -1381 0
-1377 -1382 0
-1378 -1383 0
-1379 -1384 0
-1380 -1385 0
-1376 -1701 0
-1377 -1702 0
-1378 -1703 0
-1379 -1704 0
-1380 -1705 0
-1381 -1706 0
-1382 -1707 0
-1383 -1708 0
-1384 -1709 0
-1385 -1710 0
-1386 -1391 0
-1387 -1392 0
-1388 -1393 0
-1389 -1394 0
-1390 -1395 0
-1386 -1526 0
-1387 -1527 0
-1388 -1528 0
-1389 -1529 0
-1390 -1530 0
-1391 -1531 0
-1392 -1532 0
-1393 -1533 0
-1394 -1534 0
-1395 -1535 0
-1396 -1401 0
-1397 -1402 0
-1398 -1403 0
-1399 -1404 0
-1400 -1405 0
-1396 -1851 0
-1397 -1852 0
-1398 -1853 0
-1399 -1854 0
-1400 -1855 0
-1401 -1846 0
-1402 -1847 0
-1403 -1848 0
-1404 -1849 0
-1405 -1850 0
-1406 -1411 0
-1407 -1412 0
-1408 -1413 0
-1409 -1414 0
-1410 -1415 0
-1406 -1536 0
-1407 -1537 0
-1408 -1538 0
-1409 -1539 0
-1410 -1540 0
-1411 -1541 0
-1412 -1542 0
-1413 -1543 0
-1414 -1544 0
-1415 -1545 0
-1416 -1421 0
-1417 -1422 0
-1418 -1423 0
-1419 -1424 0
-1420 -1425 0
-1416 -1711 0
-1417 -1712 0
-1418 -1713 0
-1419 -1714 0
-1420 -1715 0
-1421 -1716 0
-1422 -1717 0
-1423 -1718 0
-1424 -1719 0
-1425 -1720 0
-1426 -1546 0
-1427 -1547 0
-1428 -1548 0
-1429 -1549 0
-1430 -1550 0
-1431 -1561 0
-1432 -1562 0
-1433 -1563 0
-1434 -1564 0
-1435 -1565 0
-1431 -1776 0
-1432 -1777 0
-1433 -1778 0
-1434 -1779 0
-1435 -1780 0
-1431 -1856 0
-1432 -1857 0
-1433 -1858 0
-1434 -1859 0
-1435 -1860 0
-1436 -1551 0
-1437 -1552 0
-1438 -1553 0
-1439 -1554 0
-1440 -1555 0
-1436 -1736 0
-1437 -1737 0
-1438 -1738 0
-1439 -1739 0
-1440 -1740 0
-1441 -1581 0
-1442 -1582 0
-1443 -1583 0
-1444 -1584 0
-1445 -1585 0
-1446 -1571 0
-1447 -1572 0
-1448 -1573 0
-1449 -1574 0
-1450 -1575 0
-1446 -1756 0
-1447 -1757 0
-1448 -1758 0
-1449 -1759 0
-1450 -1760 0
-1446 -1861 0
-1447 -1862 0
-1448 -1863 0
-1449 -1864 0
-1450 -1865 0
-1451 -1591 0
-1452 -1592 0
-1453 -1593 0
-1454 -1594 0
-1455 -1595 0
-1451 -1746 0
-1452 -1747 0
-1453 -1748 0
-1454 -1749 0
-1455 -1750 0
-1451 -1861 0
-1452 -1862 0
-1453 -1863 0
-1454 -1864 0
-1455 -1865 0
-1456 -1581 0
-1457 -1582 0
-1458 -1583 0
-1459 -1584 0
-1460 -1585 0
-1456 -1751 0
-1457 -1752 0
-1458 -1753 0
-1459 -1754 0
-1460 -1755 0
-1461 -1611 0
-1462 -1612 0
-1463 -1613 0
-1464 -1614 0
-1465 -1615 0
-1461 -1766 0
-1462 -1767 0
-1463 -1768 0
-1464 -1769 0
-1465 -1770 0
-1466 -1601 0
-1467 -1602 0
-1468 -1603 0
-1469 -1604 0
-1470 -1605 0
-1466 -1771 0
-1467 -1772 0
-1468 -1773 0
-1469 -1774 0
-1470 -1775 0
-1466 -1866 0
-1467 -1867 0
-1468 -1868 0
-1469 -1869 0
-1470 -1870 0
-1471 -1621 0
-1472 -1622 0
-1473 -1623 0
-1474 -1624 0
-1475 -1625 0
-1471 -1761 0
-1472 -1762 0
-1473 -1763 0
-1474 -1764 0
-1475 -1765 0
-1471 -1866 0
-1472 -1867 0
-1473 -1868 0
-1474 -1869 0
-1475 -1870 0
-1476 -1611 0
-1477 -1612 0
-1478 -1613 0
-1479 -1614 0
-1480 -1615 0
-1481 -1551 0
-1482 -1552 0
-1483 -1553 0
-1484 -1554 0
-1485 -1555 0
-1481 -1781 0
-1482 -1782 0
-1483 -1783 0
-1484 -1784 0
-1485 -1785 0
-1486 -1631 0
-1487 -1632 0
-1488 -1633 0
-1489 -1634 0
-1490 -1635 0
-1486 -1741 0
-1487 -1742 0
-1488 -1743 0
-1489 -1744 0
-1490 -1745 0
-1486 -1856 0
-1487 -1857 0
-1488 -1858 0
-1489 -1859 0
-1490 -1860 0
-1491 -1526 0
-1492 -1527 0
-1493 -1528 0
-1494 -1529 0
-1495 -1530 0
-1496 -1521 0
-1497 -1522 0
-1498 -1523 0
-1499 -1524 0
-1500 -1525 0
-1501 -1536 0
-1502 -1537 0
-1503 -1538 0
-1504 -1539 0
-1505 -1540 0
-1506 -1531 0
-1507 -1532 0
-1508 -1533 0
-1509 -1534 0
-1510 -1535 0
-1511 -1546 0
-1512 -1547 0
-1513 -1548 0
-1514 -1549 0
-1515 -1550 0
-1516 -1541 0
-1517 -1542 0
-1518 -1543 0
-1519 -1544 0
-1520 -1545 0
-1521 -1641 0
-1522 -1642 0
-1523 -1643 0
-1524 -1644 0
-1525 -1645 0
-1526 -1646 0
-1527 -1647 0
-1528 -1648 0
-1529 -1649 0
-1530 -1650 0
-1531 -1651 0
-1532 -1652 0
-1533 -1653 0
-1534 -1654 0
-1535 -1655 0
-1536 -1656 0
-1537 -1657 0
-1538 -1658 0
-1539 -1659 0
-1540 -1660 0
-1541 -1661 0
-1542 -1662 0
-1543 -1663 0
-1544 -1664 0
-1545 -1665 0
-1546 -1666 0
-1547 -1667 0
-1548 -1668 0
-1549 -1669 0
-1550 -1670 0
-1556 -1636 0
-1557 -1637 0
-1558 -1638 0
-1559 -1639 0
-1560 -1640 0
-1556 -1791 0
-1557 -1792 0
-1558 -1793 0
-1559 -1794 0
-1560 -1795 0
-1556 -1841 0
-1557 -1842 0
-1558 -1843 0
-1559 -1844 0
-1560 -1845 0
-1556 -1856 0
-1557 -1857 0
-1558 -1858 0
-1559 -1859 0
-1560 -1860 0
-1561 -1571 0
-1562 -1572 0
-1563 -1573 0
-1564 -1574 0
-1565 -1575 0
-1561 -1786 0
-1562 -1787 0
-1563 -1788 0
-1564 -1789 0
-1565 -1790 0
-1561 -1796 0
-1562 -1797 0
-1563 -1798 0
-1564 -1799 0
-1565 -1800 0
-1571 -1791 0
-1572 -1792 0
-1573 -1793 0
-1574 -1794 0
-1575 -1795 0
-1571 -1801 0
-1572 -1802 0
-1573 -1803 0
-1574 -1804 0
-1575 -1805 0
-1576 -1586 0
-1577 -1587 0
-1578 -1588 0
-1579 -1589 0
-1580 -1590 0
-1576 -1796 0
-1577 -1797 0
-1578 -1798 0
-1579 -1799 0
-1580 -1800 0
-1576 -1806 0
-1577 -1807 0
-1578 -1808 0
-1579 -1809 0
-1580 -1810 0
-1576 -1861 0
-1577 -1862 0
-1578 -1863 0
-1579 -1864 0
-1580 -1865 0
-1586 -1801 0
-1587 -1802 0
-1588 -1803 0
-1589 -1804 0
-1590 -1805 0
-1586 -1811 0
-1587 -1812 0
-1588 -1813 0
-1589 -1814 0
-1590 -1815 0
-1586 -1861 0
-1587 -1862 0
-1588 -1863 0
-1589 -1864 0
-1590 -1865 0
-1591 -1601 0
-1592 -1602 0
-1593 -1603 0
-1594 -1604 0
-1595 -1605 0
-1591 -1806 0
-1592 -1807 0
-1593 -1808 0
-1594 -1809 0
-1595 -1810 0
-1591 -1816 0
-1592 -1817 0
-1593 -1818 0
-1594 -1819 0
-1595 -1820 0
-1601 -1811 0
-1602 -1812 0
-1603 -1813 0
-1604 -1814 0
-1605 -1815 0
-1601 -1821 0
-1602 -1822 0
-1603 -1823 0
-1604 -1824 0
-1605 -1825 0
-1606 -1616 0
-1607 -1617 0
-1608 -1618 0
-1609 -1619 0
-1610 -1620 0
-1606 -1816 0
-1607 -1817 0
-1608 -1818 0
-1609 -1819 0
-1610 -1820 0
-1606 -1826 0
-1607 -1827 0
-1608 -1828 0
-1609 -1829 0
-1610 -1830 0
-1606 -1866 0
-1607 -1867 0
-1608 -1868 0
-1609 -1869 0
-1610 -1870 0
-1616 -1821 0
-1617 -1822 0
-1618 -1823 0
-1619 -1824 0
-1620 -1825 0
-1616 -1831 0
-1617 -1832 0
-1618 -1833 0
-1619 -1834 0
-1620 -1835 0
-1616 -1866 0
-1617 -1867 0
-1618 -1868 0
-1619 -1869 0
-1620 -1870 0
-1621 -1631 0
-1622 -1632 0
-1623 -1633 0
-1624 -1634 0
-1625 -1635 0
-1621 -1826 0
-1622 -1827 0
-1623 -1828 0
-1624 -1829 0
-1625 -1830 0
-1621 -1836 0
-1622 -1837 0
-1623 -1838 0
-1624 -1839 0
-1625 -1840 0
-1631 -1831 0
-1632 -1832 0
-1633 -1833 0
-1634 -1834 0
-1635 -1835 0
-1631 -1841 0
-1632 -1842 0
-1633 -1843 0
-1634 -1844 0
-1635 -1845 0
-1636 -1786 0
-1637 -1787 0
-1638 -1788 0
-1639 -1789 0
-1640 -1790 0
-1636 -1836 0
-1637 -1837 0
-1638 -1838 0
-1639 -1839 0
-1640 -1840 0
-1636 -1856 0
-1637 -1857 0
-1638 -1858 0
-1639 -1859 0
-1640 -1860 0
-1671 -1701 0
-1672 -1702 0
-1673 -1703 0
-1674 -1704 0
-1675 -1705 0
-1676 -1706 0
-1677 -1707 0
-1678 -1708 0
-1679 -1709 0
-1680 -1710 0
-1681 -1851 0
-1682 -1852 0
-1683 -1853 0
-1684 -1854 0
-1685 -1855 0
-1686 -1846 0
-1687 -1847 0
-1688 -1848 0
-1689 -1849 0
-1690 -1850 0
-1691 -1711 0
-1692 -1712 0
-1693 -1713 0
-1694 -1714 0
-1695 -1715 0
-1696 -1716 0
-1697 -1717 0
-1698 -1718 0
-1699 -1719 0
-1700 -1720 0
-1701 -1776 0
-1702 -1777 0
-1703 -1778 0
-1704 -1779 0
-1705 -1780 0
-1706 -1756 0
-1707 -1757 0
-1708 -1758 0
-1709 -1759 0
-1710 -1760 0
-1711 -1761 0
-1712 -1762 0
-1713 -1763 0
-1714 -1764 0
-1715 -1765 0
-1716 -1741 0
-1717 -1742 0
-1718 -1743 0
-1719 -1744 0
-1720 -1745 0
-1721 -2151 0
-1722 -2152 0
-1723 -2153 0
-1724 -2154 0
-1725 -2155 0
-1726 -2161 0
-1727 -2162 0
-1728 -2163 0
-1729 -2164 0
-1730 -2165 0
-1731 -2171 0
-1732 -2172 0
-1733 -2173 0
-1734 -2174 0
-1735 -2175 0
-1741 -1856 0
-1742 -1857 0
-1743 -1858 0
-1744 -1859 0
-1745 -1860 0
-1746 -1861 0
-1747 -1862 0
-1748 -1863 0
-1749 -1864 0
-1750 -1865 0
-1756 -1846 0
-1757 -1847 0
-1758 -1848 0
-1759 -1849 0
-1760 -1850 0
-1756 -1861 0
-1757 -1862 0
-1758 -1863 0
-1759 -1864 0
-1760 -1865 0
-1761 -1851 0
-1762 -1852 0
-1763 -1853 0
-1764 -1854 0
-1765 -1855 0
-1761 -1866 0
-1762 -1867 0
-1763 -1868 0
-1764 -1869 0
-1765 -1870 0
-1771 -1866 0
-1772 -1867 0
-1773 -1868 0
-1774 -1869 0
-1775 -1870 0
-1776 -1856 0
-1777 -1857 0
-1778 -1858 0
-1779 -1859 0
-1780 -1860 0
-1786 -2406 0
-1787 -2407 0
-1788 -2408 0
-1789 -2409 0
-1790 -2410 0
-1791 -2411 0
-1792 -2412 0
-1793 -2413 0
-1794 -2414 0
-1795 -2415 0
-1796 -2416 0
-1797 -2417 0
-1798 -2418 0
-1799 -2419 0
-1800 -2420 0
-1801 -2421 0
-1802 -2422 0
-1803 -2423 0
-1804 -2424 0
-1805 -2425 0
-1806 -2426 0
-1807 -2427 0
-1808 -2428 0
-1809 -2429 0
-1810 -2430 0
-1811 -2431 0
-1812 -2432 0
-1813 -2433 0
-1814 -2434 0
-1815 -2435 0
-1816 -2436 0
-1817 -2437 0
-1818 -2438 0
-1819 -2439 0
-1820 -2440 0
-1821 -2441 0
-1822 -2442 0
-1823 -2443 0
-1824 -2444 0
-1825 -2445 0
-1826 -2446 0
-1827 -2447 0
-1828 -2448 0
-1829 -2449 0
-1830 -2450 0
-1831 -2451 0
-1832 -2452 0
-1833 -2453 0
-1834 -2454 0
-1835 -2455 0
-1836 -2456 0
-1837 -2457 0
-1838 -2458 0
-1839 -2459 0
-1840 -2460 0
-1841 -2461 0
-1842 -2462 0
-1843 -2463 0
-1844 -2464 0
-1845 -2465 0
-1871 -1946 0
-1872 -1947 0
-1873 -1948 0
-1874 -1949 0
-1875 -1950 0
-1871 -1981 0
-1872 -1982 0
-1873 -1983 0
-1874 -1984 0
-1875 -1985 0
-1871 -2026 0
-1872 -2027 0
-1873 -2028 0
-1874 -2029 0
-1875 -2030 0
-1871 -2051 0
-1872 -2052 0
-1873 -2053 0
-1874 -2054 0
-1875 -2055 0
-1871 -2111 0
-1872 -2112 0
-1873 -2113 0
-1874 -2114 0
-1875 -2115 0
-1876 -1956 0
-1877 -1957 0
-1878 -1958 0
-1879 -1959 0
-1880 -1960 0
-1876 -1966 0
-1877 -1967 0
-1878 -1968 0
-1879 -1969 0
-1880 -1970 0
-1876 -1986 0
-1877 -1987 0
-1878 -1988 0
-1879 -1989 0
-1880 -1990 0
-1876 -2056 0
-1877 -2057 0
-1878 -2058 0
-1879 -2059 0
-1880 -2060 0
-1876 -2131 0
-1877 -2132 0
-1878 -2133 0
-1879 -2134 0
-1880 -2135 0
-1881 -1961 0
-1882 -1962 0
-1883 -1963 0
-1884 -1964 0
-1885 -1965 0
-1881 -1971 0
-1882 -1972 0
-1883 -1973 0
-1884 -1974 0
-1885 -1975 0
-1881 -2021 0
-1882 -2022 0
-1883 -2023 0
-1884 -2024 0
-1885 -2025 0
-1881 -2046 0
-1882 -2047 0
-1883 -2048 0
-1884 -2049 0
-1885 -2050 0
-1881 -2081 0
-1882 -2082 0
-1883 -2083 0
-1884 -2084 0
-1885 -2085 0
-1881 -2136 0
-1882 -2137 0
-1883 -2138 0
-1884 -2139 0
-1885 -2140 0
-1886 -1931 0
-1887 -1932 0
-1888 -1933 0
-1889 -1934 0
-1890 -1935 0
-1886 -1936 0
-1887 -1937 0
-1888 -1938 0
-1889 -1939 0
-1890 -1940 0
-1886 -1966 0
-1887 -1967 0
-1888 -1968 0
-1889 -1969 0
-1890 -1970 0
-1886 -2001 0
-1887 -2002 0
-1888 -2003 0
-1889 -2004 0
-1890 -2005 0
-1886 -2036 0
-1887 -2037 0
-1888 -2038 0
-1889 -2039 0
-1890 -2040 0
-1886 -2066 0
-1887 -2067 0
-1888 -2068 0
-1889 -2069 0
-1890 -2070 0
-1886 -2096 0
-1887 -2097 0
-1888 -2098 0
-1889 -2099 0
-1890 -2100 0
-1886 -2141 0
-1887 -2142 0
-1888 -2143 0
-1889 -2144 0
-1890 -2145 0
-1886 -2146 0
-1887 -2147 0
-1888 -2148 0
-1889 -2149 0
-1890 -2150 0
-1886 -2151 0
-1887 -2152 0
-1888 -2153 0
-1889 -2154 0
-1890 -2155 0
-1886 -2176 0
-1887 -2177 0
-1888 -2178 0
-1889 -2179 0
-1890 -2180 0
-1886 -2181 0
-1887 -2182 0
-1888 -2183 0
-1889 -2184 0
-1890 -2185 0
-1886 -2236 0
-1887 -2237 0
-1888 -2238 0
-1889 -2239 0
-1890 -2240 0
-1891 -1936 0
-1892 -1937 0
-1893 -1938 0
-1894 -1939 0
-1895 -1940 0
-1891 -1941 0
-1892 -1942 0
-1893 -1943 0
-1894 -1944 0
-1895 -1945 0
-1891 -1976 0
-1892 -1977 0
-1893 -1978 0
-1894 -1979 0
-1895 -1980 0
-1891 -1986 0
-1892 -1987 0
-1893 -1988 0
-1894 -1989 0
-1895 -1990 0
-1891 -2011 0
-1892 -2012 0
-1893 -2013 0
-1894 -2014 0
-1895 -2015 0
-1891 -2091 0
-1892 -2092 0
-1893 -2093 0
-1894 -2094 0
-1895 -2095 0
-1891 -2106 0
-1892 -2107 0
-1893 -2108 0
-1894 -2109 0
-1895 -2110 0
-1891 -2151 0
-1892 -2152 0
-1893 -2153 0
-1894 -2154 0
-1895 -2155 0
-1891 -2156 0
-1892 -2157 0
-1893 -2158 0
-1894 -2159 0
-1895 -2160 0
-1891 -2186 0
-1892 -2187 0
-1893 -2188 0
-1894 -2189 0
-1895 -2190 0
-1891 -2191 0
-1892 -2192 0
-1893 -2193 0
-1894 -2194 0
-1895 -2195 0
-1891 -2241 0
-1892 -2242 0
-1893 -2243 0
-1894 -2244 0
-1895 -2245 0
-1896 -1916 0
-1897 -1917 0
-1898 -1918 0
-1899 -1919 0
-1900 -1920 0
-1896 -1941 0
-1897 -1942 0
-1898 -1943 0
-1899 -1944 0
-1900 -1945 0
-1896 -1951 0
-1897 -1952 0
-1898 -1953 0
-1899 -1954 0
-1900 -1955 0
-1896 -1996 0
-1897 -1997 0
-1898 -1998 0
-1899 -1999 0
-1900 -2000 0
-1896 -2021 0
-1897 -2022 0
-1898 -2023 0
-1899 -2024 0
-1900 -2025 0
-1896 -2071 0
-1897 -2072 0
-1898 -2073 0
-1899 -2074 0
-1900 -2075 0
-1896 -2101 0
-1897 -2102 0
-1898 -2103 0
-1899 -2104 0
-1900 -2105 0
-1896 -2116 0
-1897 -2117 0
-1898 -2118 0
-1899 -2119 0
-1900 -2120 0
-1896 -2156 0
-1897 -2157 0
-1898 -2158 0
-1899 -2159 0
-1900 -2160 0
-1896 -2161 0
-1897 -2162 0
-1898 -2163 0
-1899 -2164 0
-1900 -2165 0
-1896 -2196 0
-1897 -2197 0
-1898 -2198 0
-1899 -2199 0
-1900 -2200 0
-1896 -2201 0
-1897 -2202 0
-1898 -2203 0
-1899 -2204 0
-1900 -2205 0
-1896 -2246 0
-1897 -2247 0
-1898 -2248 0
-1899 -2249 0
-1900 -2250 0
-1901 -1916 0
-1902 -1917 0
-1903 -1918 0
-1904 -1919 0
-1905 -1920 0
-1901 -1921 0
-1902 -1922 0
-1903 -1923 0
-1904 -1924 0
-1905 -1925 0
-1901 -1961 0
-1902 -1962 0
-1903 -1963 0
-1904 -1964 0
-1905 -1965 0
-1901 -1981 0
-1902 -1982 0
-1903 -1983 0
-1904 -1984 0
-1905 -1985 0
-1901 -2006 0
-1902 -2007 0
-1903 -2008 0
-1904 -2009 0
-1905 -2010 0
-1901 -2031 0
-1902 -2032 0
-1903 -2033 0
-1904 -2034 0
-1905 -2035 0
-1901 -2076 0
-1902 -2077 0
-1903 -2078 0
-1904 -2079 0
-1905 -2080 0
-1901 -2081 0
-1902 -2082 0
-1903 -2083 0
-1904 -2084 0
-1905 -2085 0
-1901 -2111 0
-1902 -2112 0
-1903 -2113 0
-1904 -2114 0
-1905 -2115 0
-1901 -2126 0
-1902 -2127 0
-1903 -2128 0
-1904 -2129 0
-1905 -2130 0
-1901 -2161 0
-1902 -2162 0
-1903 -2163 0
-1904 -2164 0
-1905 -2165 0
-1901 -2166 0
-1902 -2167 0
-1903 -2168 0
-1904 -2169 0
-1905 -2170 0
-1901 -2206 0
-1902 -2207 0
-1903 -2208 0
-1904 -2209 0
-1905 -2210 0
-1901 -2211 0
-1902 -2212 0
-1903 -2213 0
-1904 -2214 0
-1905 -2215 0
-1901 -2251 0
-1902 -2252 0
-1903 -2253 0
-1904 -2254 0
-1905 -2255 0
-1906 -1921 0
-1907 -1922 0
-1908 -1923 0
-1909 -1924 0
-1910 -1925 0
-1906 -1926 0
-1907 -1927 0
-1908 -1928 0
-1909 -1929 0
-1910 -1930 0
-1906 -1946 0
-1907 -1947 0
-1908 -1948 0
-1909 -1949 0
-1910 -1950 0
-1906 -1971 0
-1907 -1972 0
-1908 -1973 0
-1909 -1974 0
-1910 -1975 0
-1906 -2016 0
-1907 -2017 0
-1908 -2018 0
-1909 -2019 0
-1910 -2020 0
-1906 -2041 0
-1907 -2042 0
-1908 -2043 0
-1909 -2044 0
-1910 -2045 0
-1906 -2121 0
-1907 -2122 0
-1908 -2123 0
-1909 -2124 0
-1910 -2125 0
-1906 -2136 0
-1907 -2137 0
-1908 -2138 0
-1909 -2139 0
-1910 -2140 0
-1906 -2166 0
-1907 -2167 0
-1908 -2168 0
-1909 -2169 0
-1910 -2170 0
-1906 -2171 0
-1907 -2172 0
-1908 -2173 0
-1909 -2174 0
-1910 -2175 0
-1906 -2216 0
-1907 -2217 0
-1908 -2218 0
-1909 -2219 0
-1910 -2220 0
-1906 -2221 0
-1907 -2222 0
-1908 -2223 0
-1909 -2224 0
-1910 -2225 0
-1906 -2256 0
-1907 -2257 0
-1908 -2258 0
-1909 -2259 0
-1910 -2260 0
-1911 -1926 0
-1912 -1927 0
-1913 -1928 0
-1914 -1929 0
-1915 -1930 0
-1911 -1931 0
-1912 -1932 0
-1913 -1933 0
-1914 -1934 0
-1915 -1935 0
-1911 -1956 0
-1912 -1957 0
-1913 -1958 0
-1914 -1959 0
-1915 -1960 0
-1911 -1991 0
-1912 -1992 0
-1913 -1993 0
-1914 -1994 0
-1915 -1995 0
-1911 -2026 0
-1912 -2027 0
-1913 -2028 0
-1914 -2029 0
-1915 -2030 0
-1911 -2061 0
-1912 -2062 0
-1913 -2063 0
-1914 -2064 0
-1915 -2065 0
-1911 -2086 0
-1912 -2087 0
-1913 -2088 0
-1914 -2089 0
-1915 -2090 0
-1911 -2131 0
-1912 -2132 0
-1913 -2133 0
-1914 -2134 0
-1915 -2135 0
-1911 -2146 0
-1912 -2147 0
-1913 -2148 0
-1914 -2149 0
-1915 -2150 0
-1911 -2171 0
-1912 -2172 0
-1913 -2173 0
-1914 -2174 0
-1915 -2175 0
-1911 -2226 0
-1912 -2227 0
-1913 -2228 0
-1914 -2229 0
-1915 -2230 0
-1911 -2231 0
-1912 -2232 0
-1913 -2233 0
-1914 -2234 0
-1915 -2235 0
-1911 -2261 0
-1912 -2262 0
-1913 -2263 0
-1914 -2264 0
-1915 -2265 0
-1916 -1926 0
-1917 -1927 0
-1918 -1928 0
-1919 -1929 0
-1920 -1930 0
-1916 -1936 0
-1917 -1937 0
-1918 -1938 0
-1919 -1939 0
-1920 -1940 0
-1916 -1961 0
-1917 -1962 0
-1918 -1963 0
-1919 -1964 0
-1920 -1965 0
-1916 -1996 0
-1917 -1997 0
-1918 -1998 0
-1919 -1999 0
-1920 -2000 0
-1916 -2031 0
-1917 -2032 0
-1918 -2033 0
-1919 -2034 0
-1920 -2035 0
-1916 -2091 0
-1917 -2092 0
-1918 -2093 0
-1919 -2094 0
-1920 -2095 0
-1916 -2136 0
-1917 -2137 0
-1918 -2138 0
-1919 -2139 0
-1920 -2140 0
-1916 -2236 0
-1917 -2237 0
-1918 -2238 0
-1919 -2239 0
-1920 -2240 0
-1916 -2261 0
-1917 -2262 0
-1918 -2263 0
-1919 -2264 0
-1920 -2265 0
-1916 -2291 0
-1917 -2292 0
-1918 -2293 0
-1919 -2294 0
-1920 -2295 0
-1921 -1931 0
-1922 -1932 0
-1923 -1933 0
-1924 -1934 0
-1925 -1935 0
-1921 -1941 0
-1922 -1942 0
-1923 -1943 0
-1924 -1944 0
-1925 -1945 0
-1921 -1971 0
-1922 -1972 0
-1923 -1973 0
-1924 -1974 0
-1925 -1975 0
-1921 -1981 0
-1922 -1982 0
-1923 -1983 0
-1924 -1984 0
-1925 -1985 0
-1921 -2006 0
-1922 -2007 0
-1923 -2008 0
-1924 -2009 0
-1925 -2010 0
-1921 -2041 0
-1922 -2042 0
-1923 -2043 0
-1924 -2044 0
-1925 -2045 0
-1921 -2046 0
-1922 -2047 0
-1923 -2048 0
-1924 -2049 0
-1925 -2050 0
-1921 -2051 0
-1922 -2052 0
-1923 -2053 0
-1924 -2054 0
-1925 -2055 0
-1921 -2086 0
-1922 -2087 0
-1923 -2088 0
-1924 -2089 0
-1925 -2090 0
-1921 -2101 0
-1922 -2102 0
-1923 -2103 0
-1924 -2104 0
-1925 -2105 0
-1921 -2236 0
-1922 -2237 0
-1923 -2238 0
-1924 -2239 0
-1925 -2240 0
-1921 -2241 0
-1922 -2242 0
-1923 -2243 0
-1924 -2244 0
-1925 -2245 0
-1921 -2266 0
-1922 -2267 0
-1923 -2268 0
-1924 -2269 0
-1925 -2270 0
-1926 -1936 0
-1927 -1937 0
-1928 -1938 0
-1929 -1939 0
-1930 -1940 0
-1926 -1946 0
-1927 -1947 0
-1928 -1948 0
-1929 -1949 0
-1930 -1950 0
-1926 -1991 0
-1927 -1992 0
-1928 -1993 0
-1929 -1994 0
-1930 -1995 0
-1926 -2016 0
-1927 -2017 0
-1928 -2018 0
-1929 -2019 0
-1930 -2020 0
-1926 -2096 0
-1927 -2097 0
-1928 -2098 0
-1929 -2099 0
-1930 -2100 0
-1926 -2111 0
-1927 -2112 0
-1928 -2113 0
-1929 -2114 0
-1930 -2115 0
-1926 -2241 0
-1927 -2242 0
-1928 -2243 0
-1929 -2244 0
-1930 -2245 0
-1926 -2246 0
-1927 -2247 0
-1928 -2248 0
-1929 -2249 0
-1930 -2250 0
-1926 -2271 0
-1927 -2272 0
-1928 -2273 0
-1929 -2274 0
-1930 -2275 0
-1931 -1941 0
-1932 -1942 0
-1933 -1943 0
-1934 -1944 0
-1935 -1945 0
-1931 -1956 0
-1932 -1957 0
-1933 -1958 0
-1934 -1959 0
-1935 -1960 0
-1931 -2001 0
-1932 -2002 0
-1933 -2003 0
-1934 -2004 0
-1935 -2005 0
-1931 -2026 0
-1932 -2027 0
-1933 -2028 0
-1934 -2029 0
-1935 -2030 0
-1931 -2051 0
-1932 -2052 0
-1933 -2053 0
-1934 -2054 0
-1935 -2055 0
-1931 -2056 0
-1932 -2057 0
-1933 -2058 0
-1934 -2059 0
-1935 -2060 0
-1931 -2106 0
-1932 -2107 0
-1933 -2108 0
-1934 -2109 0
-1935 -2110 0
-1931 -2121 0
-1932 -2122 0
-1933 -2123 0
-1934 -2124 0
-1935 -2125 0
-1931 -2246 0
-1932 -2247 0
-1933 -2248 0
-1934 -2249 0
-1935 -2250 0
-1931 -2251 0
-1932 -2252 0
-1933 -2253 0
-1934 -2254 0
-1935 -2255 0
-1936 -1966 0
-1937 -1967 0
-1938 -1968 0
-1939 -1969 0
-1940 -1970 0
-1936 -2011 0
-1937 -2012 0
-1938 -2013 0
-1939 -2014 0
-1940 -2015 0
-1936 -2036 0
-1937 -2037 0
-1938 -2038 0
-1939 -2039 0
-1940 -2040 0
-1936 -2116 0
-1937 -2117 0
-1938 -2118 0
-1939 -2119 0
-1940 -2120 0
-1936 -2131 0
-1937 -2132 0
-1938 -2133 0
-1939 -2134 0
-1940 -2135 0
-1936 -2251 0
-1937 -2252 0
-1938 -2253 0
-1939 -2254 0
-1940 -2255 0
-1936 -2256 0
-1937 -2257 0
-1938 -2258 0
-1939 -2259 0
-1940 -2260 0
-1936 -2276 0
-1937 -2277 0
-1938 -2278 0
-1939 -2279 0
-1940 -2280 0
-1936 -2281 0
-1937 -2282 0
-1938 -2283 0
-1939 -2284 0
-1940 -2285 0
-1941 -1951 0
-1942 -1952 0
-1943 -1953 0
-1944 -1954 0
-1945 -1955 0
-1941 -1976 0
-1942 -1977 0
-1943 -1978 0
-1944 -1979 0
-1945 -1980 0
-1941 -1986 0
-1942 -1987 0
-1943 -1988 0
-1944 -1989 0
-1945 -1990 0
-1941 -2021 0
-1942 -2022 0
-1943 -2023 0
-1944 -2024 0
-1945 -2025 0
-1941 -2046 0
-1942 -2047 0
-1943 -2048 0
-1944 -2049 0
-1945 -2050 0
-1941 -2056 0
-1942 -2057 0
-1943 -2058 0
-1944 -2059 0
-1945 -2060 0
-1941 -2126 0
-1942 -2127 0
-1943 -2128 0
-1944 -2129 0
-1945 -2130 0
-1941 -2141 0
-1942 -2142 0
-1943 -2143 0
-1944 -2144 0
-1945 -2145 0
-1941 -2256 0
-1942 -2257 0
-1943 -2258 0
-1944 -2259 0
-1945 -2260 0
-1941 -2261 0
-1942 -2262 0
-1943 -2263 0
-1944 -2264 0
-1945 -2265 0
-1941 -2286 0
-1942 -2287 0
-1943 -2288 0
-1944 -2289 0
-1945 -2290 0
-1946 -2036 0
-1947 -2037 0
-1948 -2038 0
-1949 -2039 0
-1950 -2040 0
-1946 -2096 0
-1947 -2097 0
-1948 -2098 0
-1949 -2099 0
-1950 -2100 0
-1946 -2231 0
-1947 -2232 0
-1948 -2233 0
-1949 -2234 0
-1950 -2235 0
-1946 -2266 0
-1947 -2267 0
-1948 -2268 0
-1949 -2269 0
-1950 -2270 0
-1946 -2291 0
-1947 -2292 0
-1948 -2293 0
-1949 -2294 0
-1950 -2295 0
-1946 -2296 0
-1947 -2297 0
-1948 -2298 0
-1949 -2299 0
-1950 -2300 0
-1951 -2001 0
-1952 -2002 0
-1953 -2003 0
-1954 -2004 0
-1955 -2005 0
-1951 -2071 0
-1952 -2072 0
-1953 -2073 0
-1954 -2074 0
-1955 -2075 0
-1951 -2141 0
-1952 -2142 0
-1953 -2143 0
-1954 -2144 0
-1955 -2145 0
-1951 -2186 0
-1952 -2187 0
-1953 -2188 0
-1954 -2189 0
-1955 -2190 0
-1951 -2301 0
-1952 -2302 0
-1953 -2303 0
-1954 -2304 0
-1955 -2305 0
-1956 -1986 0
-1957 -1987 0
-1958 -1988 0
-1959 -1989 0
-1960 -1990 0
-1956 -2061 0
-1957 -2062 0
-1958 -2063 0
-1959 -2064 0
-1960 -2065 0
-1956 -2106 0
-1957 -2107 0
-1958 -2108 0
-1959 -2109 0
-1960 -2110 0
-1956 -2181 0
-1957 -2182 0
-1958 -2183 0
-1959 -2184 0
-1960 -2185 0
-1956 -2266 0
-1957 -2267 0
-1958 -2268 0
-1959 -2269 0
-1960 -2270 0
-1956 -2271 0
-1957 -2272 0
-1958 -2273 0
-1959 -2274 0
-1960 -2275 0
-1956 -2306 0
-1957 -2307 0
-1958 -2308 0
-1959 -2309 0
-1960 -2310 0
-1961 -2011 0
-1962 -2012 0
-1963 -2013 0
-1964 -2014 0
-1965 -2015 0
-1961 -2076 0
-1962 -2077 0
-1963 -2078 0
-1964 -2079 0
-1965 -2080 0
-1961 -2091 0
-1962 -2092 0
-1963 -2093 0
-1964 -2094 0
-1965 -2095 0
-1961 -2196 0
-1962 -2197 0
-1963 -2198 0
-1964 -2199 0
-1965 -2200 0
-1961 -2311 0
-1962 -2312 0
-1963 -2313 0
-1964 -2314 0
-1965 -2315 0
-1966 -1996 0
-1967 -1997 0
-1968 -1998 0
-1969 -1999 0
-1970 -2000 0
-1966 -2066 0
-1967 -2067 0
-1968 -2068 0
-1969 -2069 0
-1970 -2070 0
-1966 -2116 0
-1967 -2117 0
-1968 -2118 0
-1969 -2119 0
-1970 -2120 0
-1966 -2191 0
-1967 -2192 0
-1968 -2193 0
-1969 -2194 0
-1970 -2195 0
-1966 -2271 0
-1967 -2272 0
-1968 -2273 0
-1969 -2274 0
-1970 -2275 0
-1966 -2316 0
-1967 -2317 0
-1968 -2318 0
-1969 -2319 0
-1970 -2320 0
-1971 -2021 0
-1972 -2022 0
-1973 -2023 0
-1974 -2024 0
-1975 -2025 0
-1971 -2101 0
-1972 -2102 0
-1973 -2103 0
-1974 -2104 0
-1975 -2105 0
-1971 -2206 0
-1972 -2207 0
-1973 -2208 0
-1974 -2209 0
-1975 -2210 0
-1971 -2321 0
-1972 -2322 0
-1973 -2323 0
-1974 -2324 0
-1975 -2325 0
-1976 -2006 0
-1977 -2007 0
-1978 -2008 0
-1979 -2009 0
-1980 -2010 0
-1976 -2126 0
-1977 -2127 0
-1978 -2128 0
-1979 -2129 0
-1980 -2130 0
-1976 -2201 0
-1977 -2202 0
-1978 -2203 0
-1979 -2204 0
-1980 -2205 0
-1976 -2276 0
-1977 -2277 0
-1978 -2278 0
-1979 -2279 0
-1980 -2280 0
-1976 -2326 0
-1977 -2327 0
-1978 -2328 0
-1979 -2329 0
-1980 -2330 0
-1981 -2026 0
-1982 -2027 0
-1983 -2028 0
-1984 -2029 0
-1985 -2030 0
-1981 -2081 0
-1982 -2082 0
-1983 -2083 0
-1984 -2084 0
-1985 -2085 0
-1981 -2086 0
-1982 -2087 0
-1983 -2088 0
-1984 -2089 0
-1985 -2090 0
-1981 -2221 0
-1982 -2222 0
-1983 -2223 0
-1984 -2224 0
-1985 -2225 0
-1981 -2286 0
-1982 -2287 0
-1983 -2288 0
-1984 -2289 0
-1985 -2290 0
-1981 -2291 0
-1982 -2292 0
-1983 -2293 0
-1984 -2294 0
-1985 -2295 0
-1981 -2346 0
-1982 -2347 0
-1983 -2348 0
-1984 -2349 0
-1985 -2350 0
-1986 -1996 0
-1987 -1997 0
-1988 -1998 0
-1989 -1999 0
-1990 -2000 0
-1986 -2036 0
-1987 -2037 0
-1988 -2038 0
-1989 -2039 0
-1990 -2040 0
-1986 -2151 0
-1987 -2152 0
-1988 -2153 0
-1989 -2154 0
-1990 -2155 0
-1986 -2261 0
-1987 -2262 0
-1988 -2263 0
-1989 -2264 0
-1990 -2265 0
-1986 -2266 0
-1987 -2267 0
-1988 -2268 0
-1989 -2269 0
-1990 -2270 0
-1986 -2301 0
-1987 -2302 0
-1988 -2303 0
-1989 -2304 0
-1990 -2305 0
-1986 -2351 0
-1987 -2352 0
-1988 -2353 0
-1989 -2354 0
-1990 -2355 0
-1986 -2356 0
-1987 -2357 0
-1988 -2358 0
-1989 -2359 0
-1990 -2360 0
-1986 -2376 0
-1987 -2377 0
-1988 -2378 0
-1989 -2379 0
-1990 -2380 0
-1986 -2406 0
-1987 -2407 0
-1988 -2408 0
-1989 -2409 0
-1990 -2410 0
-1991 -2001 0
-1992 -2002 0
-1993 -2003 0
-1994 -2004 0
-1995 -2005 0
-1991 -2041 0
-1992 -2042 0
-1993 -2043 0
-1994 -2044 0
-1995 -2045 0
-1991 -2146 0
-1992 -2147 0
-1993 -2148 0
-1994 -2149 0
-1995 -2150 0
-1991 -2241 0
-1992 -2242 0
-1993 -2243 0
-1994 -2244 0
-1995 -2245 0
-1991 -2296 0
-1992 -2297 0
-1993 -2298 0
-1994 -2299 0
-1995 -2300 0
-1991 -2306 0
-1992 -2307 0
-1993 -2308 0
-1994 -2309 0
-1995 -2310 0
-1991 -2356 0
-1992 -2357 0
-1993 -2358 0
-1994 -2359 0
-1995 -2360 0
-1991 -2381 0
-1992 -2382 0
-1993 -2383 0
-1994 -2384 0
-1995 -2385 0
-1991 -2411 0
-1992 -2412 0
-1993 -2413 0
-1994 -2414 0
-1995 -2415 0
-1996 -2006 0
-1997 -2007 0
-1998 -2008 0
-1999 -2009 0
-2000 -2010 0
-1996 -2156 0
-1997 -2157 0
-1998 -2158 0
-1999 -2159 0
-2000 -2160 0
-1996 -2236 0
-1997 -2237 0
-1998 -2238 0
-1999 -2239 0
-2000 -2240 0
-1996 -2271 0
-1997 -2272 0
-1998 -2273 0
-1999 -2274 0
-2000 -2275 0
-1996 -2301 0
-1997 -2302 0
-1998 -2303 0
-1999 -2304 0
-2000 -2305 0
-1996 -2311 0
-1997 -2312 0
-1998 -2313 0
-1999 -2314 0
-2000 -2315 0
-1996 -2381 0
-1997 -2382 0
-1998 -2383 0
-1999 -2384 0
-2000 -2385 0
-1996 -2416 0
-1997 -2417 0
-1998 -2418 0
-1999 -2419 0
-2000 -2420 0
-2001 -2011 0
-2002 -2012 0
-2003 -2013 0
-2004 -2014 0
-2005 -2015 0
-2001 -2151 0
-2002 -2152 0
-2003 -2153 0
-2004 -2154 0
-2005 -2155 0
-2001 -2246 0
-2002 -2247 0
-2003 -2248 0
-2004 -2249 0
-2005 -2250 0
-2001 -2306 0
-2002 -2307 0
-2003 -2308 0
-2004 -2309 0
-2005 -2310 0
-2001 -2316 0
-2002 -2317 0
-2003 -2318 0
-2004 -2319 0
-2005 -2320 0
-2001 -2386 0
-2002 -2387 0
-2003 -2388 0
-2004 -2389 0
-2005 -2390 0
-2001 -2421 0
-2002 -2422 0
-2003 -2423 0
-2004 -2424 0
-2005 -2425 0
-2006 -2016 0
-2007 -2017 0
-2008 -2018 0
-2009 -2019 0
-2010 -2020 0
-2006 -2161 0
-2007 -2162 0
-2008 -2163 0
-2009 -2164 0
-2010 -2165 0
-2006 -2241 0
-2007 -2242 0
-2008 -2243 0
-2009 -2244 0
-2010 -2245 0
-2006 -2311 0
-2007 -2312 0
-2008 -2313 0
-2009 -2314 0
-2010 -2315 0
-2006 -2321 0
-2007 -2322 0
-2008 -2323 0
-2009 -2324 0
-2010 -2325 0
-2006 -2361 0
-2007 -2362 0
-2008 -2363 0
-2009 -2364 0
-2010 -2365 0
-2006 -2386 0
-2007 -2387 0
-2008 -2388 0
-2009 -2389 0
-2010 -2390 0
-2006 -2426 0
-2007 -2427 0
-2008 -2428 0
-2009 -2429 0
-2010 -2430 0
-2011 -2021 0
-2012 -2022 0
-2013 -2023 0
-2014 -2024 0
-2015 -2025 0
-2011 -2156 0
-2012 -2157 0
-2013 -2158 0
-2014 -2159 0
-2015 -2160 0
-2011 -2251 0
-2012 -2252 0
-2013 -2253 0
-2014 -2254 0
-2015 -2255 0
-2011 -2316 0
-2012 -2317 0
-2013 -2318 0
-2014 -2319 0
-2015 -2320 0
-2011 -2326 0
-2012 -2327 0
-2013 -2328 0
-2014 -2329 0
-2015 -2330 0
-2011 -2361 0
-2012 -2362 0
-2013 -2363 0
-2014 -2364 0
-2015 -2365 0
-2011 -2391 0
-2012 -2392 0
-2013 -2393 0
-2014 -2394 0
-2015 -2395 0
-2011 -2431 0
-2012 -2432 0
-2013 -2433 0
-2014 -2434 0
-2015 -2435 0
-2016 -2026 0
-2017 -2027 0
-2018 -2028 0
-2019 -2029 0
-2020 -2030 0
-2016 -2166 0
-2017 -2167 0
-2018 -2168 0
-2019 -2169 0
-2020 -2170 0
-2016 -2246 0
-2017 -2247 0
-2018 -2248 0
-2019 -2249 0
-2020 -2250 0
-2016 -2276 0
-2017 -2277 0
-2018 -2278 0
-2019 -2279 0
-2020 -2280 0
-2016 -2321 0
-2017 -2322 0
-2018 -2323 0
-2019 -2324 0
-2020 -2325 0
-2016 -2331 0
-2017 -2332 0
-2018 -2333 0
-2019 -2334 0
-2020 -2335 0
-2016 -2366 0
-2017 -2367 0
-2018 -2368 0
-2019 -2369 0
-2020 -2370 0
-2016 -2391 0
-2017 -2392 0
-2018 -2393 0
-2019 -2394 0
-2020 -2395 0
-2016 -2436 0
-2017 -2437 0
-2018 -2438 0
-2019 -2439 0
-2020 -2440 0
-2021 -2031 0
-2022 -2032 0
-2023 -2033 0
-2024 -2034 0
-2025 -2035 0
-2021 -2161 0
-2022 -2162 0
-2023 -2163 0
-2024 -2164 0
-2025 -2165 0
-2021 -2256 0
-2022 -2257 0
-2023 -2258 0
-2024 -2259 0
-2025 -2260 0
-2021 -2326 0
-2022 -2327 0
-2023 -2328 0
-2024 -2329 0
-2025 -2330 0
-2021 -2336 0
-2022 -2337 0
-2023 -2338 0
-2024 -2339 0
-2025 -2340 0
-2021 -2366 0
-2022 -2367 0
-2023 -2368 0
-2024 -2369 0
-2025 -2370 0
-2021 -2396 0
-2022 -2397 0
-2023 -2398 0
-2024 -2399 0
-2025 -2400 0
-2021 -2441 0
-2022 -2442 0
-2023 -2443 0
-2024 -2444 0
-2025 -2445 0
-2026 -2036 0
-2027 -2037 0
-2028 -2038 0
-2029 -2039 0
-2030 -2040 0
-2026 -2171 0
-2027 -2172 0
-2028 -2173 0
-2029 -2174 0
-2030 -2175 0
-2026 -2251 0
-2027 -2252 0
-2028 -2253 0
-2029 -2254 0
-2030 -2255 0
-2026 -2286 0
-2027 -2287 0
-2028 -2288 0
-2029 -2289 0
-2030 -2290 0
-2026 -2331 0
-2027 -2332 0
-2028 -2333 0
-2029 -2334 0
-2030 -2335 0
-2026 -2341 0
-2027 -2342 0
-2028 -2343 0
-2029 -2344 0
-2030 -2345 0
-2026 -2396 0
-2027 -2397 0
-2028 -2398 0
-2029 -2399 0
-2030 -2400 0
-2026 -2446 0
-2027 -2447 0
-2028 -2448 0
-2029 -2449 0
-2030 -2450 0
-2031 -2041 0
-2032 -2042 0
-2033 -2043 0
-2034 -2044 0
-2035 -2045 0
-2031 -2166 0
-2032 -2167 0
-2033 -2168 0
-2034 -2169 0
-2035 -2170 0
-2031 -2261 0
-2032 -2262 0
-2033 -2263 0
-2034 -2264 0
-2035 -2265 0
-2031 -2281 0
-2032 -2282 0
-2033 -2283 0
-2034 -2284 0
-2035 -2285 0
-2031 -2336 0
-2032 -2337 0
-2033 -2338 0
-2034 -2339 0
-2035 -2340 0
-2031 -2346 0
-2032 -2347 0
-2033 -2348 0
-2034 -2349 0
-2035 -2350 0
-2031 -2401 0
-2032 -2402 0
-2033 -2403 0
-2034 -2404 0
-2035 -2405 0
-2031 -2451 0
-2032 -2452 0
-2033 -2453 0
-2034 -2454 0
-2035 -2455 0
-2036 -2146 0
-2037 -2147 0
-2038 -2148 0
-2039 -2149 0
-2040 -2150 0
-2036 -2256 0
-2037 -2257 0
-2038 -2258 0
-2039 -2259 0
-2040 -2260 0
-2036 -2291 0
-2037 -2292 0
-2038 -2293 0
-2039 -2294 0
-2040 -2295 0
-2036 -2341 0
-2037 -2342 0
-2038 -2343 0
-2039 -2344 0
-2040 -2345 0
-2036 -2351 0
-2037 -2352 0
-2038 -2353 0
-2039 -2354 0
-2040 -2355 0
-2036 -2371 0
-2037 -2372 0
-2038 -2373 0
-2039 -2374 0
-2040 -2375 0
-2036 -2401 0
-2037 -2402 0
-2038 -2403 0
-2039 -2404 0
-2040 -2405 0
-2036 -2456 0
-2037 -2457 0
-2038 -2458 0
-2039 -2459 0
-2040 -2460 0
-2041 -2171 0
-2042 -2172 0
-2043 -2173 0
-2044 -2174 0
-2045 -2175 0
-2041 -2236 0
-2042 -2237 0
-2043 -2238 0
-2044 -2239 0
-2045 -2240 0
-2041 -2296 0
-2042 -2297 0
-2043 -2298 0
-2044 -2299 0
-2045 -2300 0
-2041 -2346 0
-2042 -2347 0
-2043 -2348 0
-2044 -2349 0
-2045 -2350 0
-2041 -2371 0
-2042 -2372 0
-2043 -2373 0
-2044 -2374 0
-2045 -2375 0
-2041 -2376 0
-2042 -2377 0
-2043 -2378 0
-2044 -2379 0
-2045 -2380 0
-2041 -2461 0
-2042 -2462 0
-2043 -2463 0
-2044 -2464 0
-2045 -2465 0
-2046 -2091 0
-2047 -2092 0
-2048 -2093 0
-2049 -2094 0
-2050 -2095 0
-2046 -2136 0
-2047 -2137 0
-2048 -2138 0
-2049 -2139 0
-2050 -2140 0
-2051 -2096 0
-2052 -2097 0
-2053 -2098 0
-2054 -2099 0
-2055 -2100 0
-2051 -2111 0
-2052 -2112 0
-2053 -2113 0
-2054 -2114 0
-2055 -2115 0
-2056 -2116 0
-2057 -2117 0
-2058 -2118 0
-2059 -2119 0
-2060 -2120 0
-2056 -2131 0
-2057 -2132 0
-2058 -2133 0
-2059 -2134 0
-2060 -2135 0
-2061 -2096 0
-2062 -2097 0
-2063 -2098 0
-2064 -2099 0
-2065 -2100 0
-2061 -2231 0
-2062 -2232 0
-2063 -2233 0
-2064 -2234 0
-2065 -2235 0
-2061 -2376 0
-2062 -2377 0
-2063 -2378 0
-2064 -2379 0
-2065 -2380 0
-2061 -2411 0
-2062 -2412 0
-2063 -2413 0
-2064 -2414 0
-2065 -2415 0
-2066 -2106 0
-2067 -2107 0
-2068 -2108 0
-2069 -2109 0
-2070 -2110 0
-2066 -2181 0
-2067 -2182 0
-2068 -2183 0
-2069 -2184 0
-2070 -2185 0
-2066 -2381 0
-2067 -2382 0
-2068 -2383 0
-2069 -2384 0
-2070 -2385 0
-2066 -2421 0
-2067 -2422 0
-2068 -2423 0
-2069 -2424 0
-2070 -2425 0
-2071 -2091 0
-2072 -2092 0
-2073 -2093 0
-2074 -2094 0
-2075 -2095 0
-2071 -2196 0
-2072 -2197 0
-2073 -2198 0
-2074 -2199 0
-2075 -2200 0
-2071 -2386 0
-2072 -2387 0
-2073 -2388 0
-2074 -2389 0
-2075 -2390 0
-2071 -2416 0
-2072 -2417 0
-2073 -2418 0
-2074 -2419 0
-2075 -2420 0
-2076 -2101 0
-2077 -2102 0
-2078 -2103 0
-2079 -2104 0
-2080 -2105 0
-2076 -2206 0
-2077 -2207 0
-2078 -2208 0
-2079 -2209 0
-2080 -2210 0
-2076 -2391 0
-2077 -2392 0
-2078 -2393 0
-2079 -2394 0
-2080 -2395 0
-2076 -2426 0
-2077 -2427 0
-2078 -2428 0
-2079 -2429 0
-2080 -2430 0
-2081 -2136 0
-2082 -2137 0
-2083 -2138 0
-2084 -2139 0
-2085 -2140 0
-2081 -2211 0
-2082 -2212 0
-2083 -2213 0
-2084 -2214 0
-2085 -2215 0
-2081 -2396 0
-2082 -2397 0
-2083 -2398 0
-2084 -2399 0
-2085 -2400 0
-2081 -2451 0
-2082 -2452 0
-2083 -2453 0
-2084 -2454 0
-2085 -2455 0
-2086 -2261 0
-2087 -2262 0
-2088 -2263 0
-2089 -2264 0
-2090 -2265 0
-2086 -2266 0
-2087 -2267 0
-2088 -2268 0
-2089 -2269 0
-2090 -2270 0
-2086 -2461 0
-2087 -2462 0
-2088 -2463 0
-2089 -2464 0
-2090 -2465 0
-2086 -2466 0
-2087 -2467 0
-2088 -2468 0
-2089 -2469 0
-2090 -2470 0
-2091 -2241 0
-2092 -2242 0
-2093 -2243 0
-2094 -2244 0
-2095 -2245 0
-2091 -2416 0
-2092 -2417 0
-2093 -2418 0
-2094 -2419 0
-2095 -2420 0
-2096 -2236 0
-2097 -2237 0
-2098 -2238 0
-2099 -2239 0
-2100 -2240 0
-2096 -2271 0
-2097 -2272 0
-2098 -2273 0
-2099 -2274 0
-2100 -2275 0
-2096 -2411 0
-2097 -2412 0
-2098 -2413 0
-2099 -2414 0
-2100 -2415 0
-2101 -2246 0
-2102 -2247 0
-2103 -2248 0
-2104 -2249 0
-2105 -2250 0
-2101 -2426 0
-2102 -2427 0
-2103 -2428 0
-2104 -2429 0
-2105 -2430 0
-2106 -2241 0
-2107 -2242 0
-2108 -2243 0
-2109 -2244 0
-2110 -2245 0
-2106 -2421 0
-2107 -2422 0
-2108 -2423 0
-2109 -2424 0
-2110 -2425 0
-2106 -2471 0
-2107 -2472 0
-2108 -2473 0
-2109 -2474 0
-2110 -2475 0
-2111 -2251 0
-2112 -2252 0
-2113 -2253 0
-2114 -2254 0
-2115 -2255 0
-2111 -2436 0
-2112 -2437 0
-2113 -2438 0
-2114 -2439 0
-2115 -2440 0
-2116 -2246 0
-2117 -2247 0
-2118 -2248 0
-2119 -2249 0
-2120 -2250 0
-2116 -2276 0
-2117 -2277 0
-2118 -2278 0
-2119 -2279 0
-2120 -2280 0
-2116 -2431 0
-2117 -2432 0
-2118 -2433 0
-2119 -2434 0
-2120 -2435 0
-2121 -2256 0
-2122 -2257 0
-2123 -2258 0
-2124 -2259 0
-2125 -2260 0
-2121 -2446 0
-2122 -2447 0
-2123 -2448 0
-2124 -2449 0
-2125 -2450 0
-2121 -2476 0
-2122 -2477 0
-2123 -2478 0
-2124 -2479 0
-2125 -2480 0
-2126 -2251 0
-2127 -2252 0
-2128 -2253 0
-2129 -2254 0
-2130 -2255 0
-2126 -2286 0
-2127 -2287 0
-2128 -2288 0
-2129 -2289 0
-2130 -2290 0
-2126 -2441 0
-2127 -2442 0
-2128 -2443 0
-2129 -2444 0
-2130 -2445 0
-2131 -2261 0
-2132 -2262 0
-2133 -2263 0
-2134 -2264 0
-2135 -2265 0
-2131 -2281 0
-2132 -2282 0
-2133 -2283 0
-2134 -2284 0
-2135 -2285 0
-2131 -2456 0
-2132 -2457 0
-2133 -2458 0
-2134 -2459 0
-2135 -2460 0
-2136 -2256 0
-2137 -2257 0
-2138 -2258 0
-2139 -2259 0
-2140 -2260 0
-2136 -2291 0
-2137 -2292 0
-2138 -2293 0
-2139 -2294 0
-2140 -2295 0
-2136 -2451 0
-2137 -2452 0
-2138 -2453 0
-2139 -2454 0
-2140 -2455 0
-2136 -2481 0
-2137 -2482 0
-2138 -2483 0
-2139 -2484 0
-2140 -2485 0
-2141 -2236 0
-2142 -2237 0
-2143 -2238 0
-2144 -2239 0
-2145 -2240 0
-2141 -2406 0
-2142 -2407 0
-2143 -2408 0
-2144 -2409 0
-2145 -2410 0
-2146 -2181 0
-2147 -2182 0
-2148 -2183 0
-2149 -2184 0
-2150 -2185 0
-2146 -2226 0
-2147 -2227 0
-2148 -2228 0
-2149 -2229 0
-2150 -2230 0
-2146 -2356 0
-2147 -2357 0
-2148 -2358 0
-2149 -2359 0
-2150 -2360 0
-2146 -2371 0
-2147 -2372 0
-2148 -2373 0
-2149 -2374 0
-2150 -2375 0
-2146 -2466 0
-2147 -2467 0
-2148 -2468 0
-2149 -2469 0
-2150 -2470 0
-2151 -2176 0
-2152 -2177 0
-2153 -2178 0
-2154 -2179 0
-2155 -2180 0
-2151 -2191 0
-2152 -2192 0
-2153 -2193 0
-2154 -2194 0
-2155 -2195 0
-2151 -2356 0
-2152 -2357 0
-2153 -2358 0
-2154 -2359 0
-2155 -2360 0
-2156 -2186 0
-2157 -2187 0
-2158 -2188 0
-2159 -2189 0
-2160 -2190 0
-2156 -2201 0
-2157 -2202 0
-2158 -2203 0
-2159 -2204 0
-2160 -2205 0
-2156 -2361 0
-2157 -2362 0
-2158 -2363 0
-2159 -2364 0
-2160 -2365 0
-2156 -2471 0
-2157 -2472 0
-2158 -2473 0
-2159 -2474 0
-2160 -2475 0
-2161 -2196 0
-2162 -2197 0
-2163 -2198 0
-2164 -2199 0
-2165 -2200 0
-2161 -2211 0
-2162 -2212 0
-2163 -2213 0
-2164 -2214 0
-2165 -2215 0
-2161 -2361 0
-2162 -2362 0
-2163 -2363 0
-2164 -2364 0
-2165 -2365 0
-2161 -2366 0
-2162 -2367 0
-2163 -2368 0
-2164 -2369 0
-2165 -2370 0
-2166 -2206 0
-2167 -2207 0
-2168 -2208 0
-2169 -2209 0
-2170 -2210 0
-2166 -2221 0
-2167 -2222 0
-2168 -2223 0
-2169 -2224 0
-2170 -2225 0
-2166 -2366 0
-2167 -2367 0
-2168 -2368 0
-2169 -2369 0
-2170 -2370 0
-2166 -2476 0
-2167 -2477 0
-2168 -2478 0
-2169 -2479 0
-2170 -2480 0
-2171 -2216 0
-2172 -2217 0
-2173 -2218 0
-2174 -2219 0
-2175 -2220 0
-2171 -2231 0
-2172 -2232 0
-2173 -2233 0
-2174 -2234 0
-2175 -2235 0
-2171 -2371 0
-2172 -2372 0
-2173 -2373 0
-2174 -2374 0
-2175 -2375 0
-2171 -2481 0
-2172 -2482 0
-2173 -2483 0
-2174 -2484 0
-2175 -2485 0
-2176 -2351 0
-2177 -2352 0
-2178 -2353 0
-2179 -2354 0
-2180 -2355 0
-2176 -2411 0
-2177 -2412 0
-2178 -2413 0
-2179 -2414 0
-2180 -2415 0
-2176 -2486 0
-2177 -2487 0
-2178 -2488 0
-2179 -2489 0
-2180 -2490 0
-2181 -2306 0
-2182 -2307 0
-2183 -2308 0
-2184 -2309 0
-2185 -2310 0
-2181 -2406 0
-2182 -2407 0
-2183 -2408 0
-2184 -2409 0
-2185 -2410 0
-2181 -2491 0
-2182 -2492 0
-2183 -2493 0
-2184 -2494 0
-2185 -2495 0
-2186 -2301 0
-2187 -2302 0
-2188 -2303 0
-2189 -2304 0
-2190 -2305 0
-2186 -2421 0
-2187 -2422 0
-2188 -2423 0
-2189 -2424 0
-2190 -2425 0
-2186 -2496 0
-2187 -2497 0
-2188 -2498 0
-2189 -2499 0
-2190 -2500 0
-2191 -2316 0
-2192 -2317 0
-2193 -2318 0
-2194 -2319 0
-2195 -2320 0
-2191 -2416 0
-2192 -2417 0
-2193 -2418 0
-2194 -2419 0
-2195 -2420 0
-2191 -2501 0
-2192 -2502 0
-2193 -2503 0
-2194 -2504 0
-2195 -2505 0
-2196 -2311 0
-2197 -2312 0
-2198 -2313 0
-2199 -2314 0
-2200 -2315 0
-2196 -2431 0
-2197 -2432 0
-2198 -2433 0
-2199 -2434 0
-2200 -2435 0
-2196 -2506 0
-2197 -2507 0
-2198 -2508 0
-2199 -2509 0
-2200 -2510 0
-2201 -2326 0
-2202 -2327 0
-2203 -2328 0
-2204 -2329 0
-2205 -2330 0
-2201 -2426 0
-2202 -2427 0
-2203 -2428 0
-2204 -2429 0
-2205 -2430 0
-2201 -2511 0
-2202 -2512 0
-2203 -2513 0
-2204 -2514 0
-2205 -2515 0
-2206 -2321 0
-2207 -2322 0
-2208 -2323 0
-2209 -2324 0
-2210 -2325 0
-2206 -2441 0
-2207 -2442 0
-2208 -2443 0
-2209 -2444 0
-2210 -2445 0
-2206 -2516 0
-2207 -2517 0
-2208 -2518 0
-2209 -2519 0
-2210 -2520 0
-2211 -2336 0
-2212 -2337 0
-2213 -2338 0
-2214 -2339 0
-2215 -2340 0
-2211 -2436 0
-2212 -2437 0
-2213 -2438 0
-2214 -2439 0
-2215 -2440 0
-2211 -2521 0
-2212 -2522 0
-2213 -2523 0
-2214 -2524 0
-2215 -2525 0
-2216 -2331 0
-2217 -2332 0
-2218 -2333 0
-2219 -2334 0
-2220 -2335 0
-2216 -2451 0
-2217 -2452 0
-2218 -2453 0
-2219 -2454 0
-2220 -2455 0
-2216 -2526 0
-2217 -2527 0
-2218 -2528 0
-2219 -2529 0
-2220 -2530 0
-2221 -2346 0
-2222 -2347 0
-2223 -2348 0
-2224 -2349 0
-2225 -2350 0
-2221 -2446 0
-2222 -2447 0
-2223 -2448 0
-2224 -2449 0
-2225 -2450 0
-2221 -2531 0
-2222 -2532 0
-2223 -2533 0
-2224 -2534 0
-2225 -2535 0
-2226 -2341 0
-2227 -2342 0
-2228 -2343 0
-2229 -2344 0
-2230 -2345 0
-2226 -2461 0
-2227 -2462 0
-2228 -2463 0
-2229 -2464 0
-2230 -2465 0
-2226 -2536 0
-2227 -2537 0
-2228 -2538 0
-2229 -2539 0
-2230 -2540 0
-2231 -2296 0
-2232 -2297 0
-2233 -2298 0
-2234 -2299 0
-2235 -2300 0
-2231 -2456 0
-2232 -2457 0
-2233 -2458 0
-2234 -2459 0
-2235 -2460 0
-2231 -2541 0
-2232 -2542 0
-2233 -2543 0
-2234 -2544 0
-2235 -2545 0
-2236 -2291 0
-2237 -2292 0
-2238 -2293 0
-2239 -2294 0
-2240 -2295 0
-2236 -2376 0
-2237 -2377 0
-2238 -2378 0
-2239 -2379 0
-2240 -2380 0
-2236 -2381 0
-2237 -2382 0
-2238 -2383 0
-2239 -2384 0
-2240 -2385 0
-2236 -2466 0
-2237 -2467 0
-2238 -2468 0
-2239 -2469 0
-2240 -2470 0
-2236 -2486 0
-2237 -2487 0
-2238 -2488 0
-2239 -2489 0
-2240 -2490 0
-2236 -2491 0
-2237 -2492 0
-2238 -2493 0
-2239 -2494 0
-2240 -2495 0
-2241 -2266 0
-2242 -2267 0
-2243 -2268 0
-2244 -2269 0
-2245 -2270 0
-2241 -2381 0
-2242 -2382 0
-2243 -2383 0
-2244 -2384 0
-2245 -2385 0
-2241 -2386 0
-2242 -2387 0
-2243 -2388 0
-2244 -2389 0
-2245 -2390 0
-2241 -2496 0
-2242 -2497 0
-2243 -2498 0
-2244 -2499 0
-2245 -2500 0
-2241 -2501 0
-2242 -2502 0
-2243 -2503 0
-2244 -2504 0
-2245 -2505 0
-2246 -2271 0
-2247 -2272 0
-2248 -2273 0
-2249 -2274 0
-2250 -2275 0
-2246 -2386 0
-2247 -2387 0
-2248 -2388 0
-2249 -2389 0
-2250 -2390 0
-2246 -2391 0
-2247 -2392 0
-2248 -2393 0
-2249 -2394 0
-2250 -2395 0
-2246 -2471 0
-2247 -2472 0
-2248 -2473 0
-2249 -2474 0
-2250 -2475 0
-2246 -2506 0
-2247 -2507 0
-2248 -2508 0
-2249 -2509 0
-2250 -2510 0
-2246 -2511 0
-2247 -2512 0
-2248 -2513 0
-2249 -2514 0
-2250 -2515 0
-2251 -2281 0
-2252 -2282 0
-2253 -2283 0
-2254 -2284 0
-2255 -2285 0
-2251 -2391 0
-2252 -2392 0
-2253 -2393 0
-2254 -2394 0
-2255 -2395 0
-2251 -2396 0
-2252 -2397 0
-2253 -2398 0
-2254 -2399 0
-2255 -2400 0
-2251 -2476 0
-2252 -2477 0
-2253 -2478 0
-2254 -2479 0
-2255 -2480 0
-2251 -2516 0
-2252 -2517 0
-2253 -2518 0
-2254 -2519 0
-2255 -2520 0
-2251 -2521 0
-2252 -2522 0
-2253 -2523 0
-2254 -2524 0
-2255 -2525 0
-2256 -2276 0
-2257 -2277 0
-2258 -2278 0
-2259 -2279 0
-2260 -2280 0
-2256 -2396 0
-2257 -2397 0
-2258 -2398 0
-2259 -2399 0
-2260 -2400 0
-2256 -2401 0
-2257 -2402 0
-2258 -2403 0
-2259 -2404 0
-2260 -2405 0
-2256 -2526 0
-2257 -2527 0
-2258 -2528 0
-2259 -2529 0
-2260 -2530 0
-2256 -2531 0
-2257 -2532 0
-2258 -2533 0
-2259 -2534 0
-2260 -2535 0
-2261 -2286 0
-2262 -2287 0
-2263 -2288 0
-2264 -2289 0
-2265 -2290 0
-2261 -2376 0
-2262 -2377 0
-2263 -2378 0
-2264 -2379 0
-2265 -2380 0
-2261 -2401 0
-2262 -2402 0
-2263 -2403 0
-2264 -2404 0
-2265 -2405 0
-2261 -2481 0
-2262 -2482 0
-2263 -2483 0
-2264 -2484 0
-2265 -2485 0
-2261 -2536 0
-2262 -2537 0
-2263 -2538 0
-2264 -2539 0
-2265 -2540 0
-2261 -2541 0
-2262 -2542 0
-2263 -2543 0
-2264 -2544 0
-2265 -2545 0
-2266 -2296 0
-2267 -2297 0
-2268 -2298 0
-2269 -2299 0
-2270 -2300 0
-2266 -2491 0
-2267 -2492 0
-2268 -2493 0
-2269 -2494 0
-2270 -2495 0
-2271 -2306 0
-2272 -2307 0
-2273 -2308 0
-2274 -2309 0
-2275 -2310 0
-2271 -2471 0
-2272 -2472 0
-2273 -2473 0
-2274 -2474 0
-2275 -2475 0
-2271 -2501 0
-2272 -2502 0
-2273 -2503 0
-2274 -2504 0
-2275 -2505 0
-2276 -2326 0
-2277 -2327 0
-2278 -2328 0
-2279 -2329 0
-2280 -2330 0
-2276 -2521 0
-2277 -2522 0
-2278 -2523 0
-2279 -2524 0
-2280 -2525 0
-2281 -2341 0
-2282 -2342 0
-2283 -2343 0
-2284 -2344 0
-2285 -2345 0
-2281 -2476 0
-2282 -2477 0
-2283 -2478 0
-2284 -2479 0
-2285 -2480 0
-2281 -2526 0
-2282 -2527 0
-2283 -2528 0
-2284 -2529 0
-2285 -2530 0
-2286 -2336 0
-2287 -2337 0
-2288 -2338 0
-2289 -2339 0
-2290 -2340 0
-2286 -2481 0
-2287 -2482 0
-2288 -2483 0
-2289 -2484 0
-2290 -2485 0
-2286 -2531 0
-2287 -2532 0
-2288 -2533 0
-2289 -2534 0
-2290 -2535 0
-2291 -2346 0
-2292 -2347 0
-2293 -2348 0
-2294 -2349 0
-2295 -2350 0
-2291 -2466 0
-2292 -2467 0
-2293 -2468 0
-2294 -2469 0
-2295 -2470 0
-2291 -2541 0
-2292 -2542 0
-2293 -2543 0
-2294 -2544 0
-2295 -2545 0
-2296 -2351 0
-2297 -2352 0
-2298 -2353 0
-2299 -2354 0
-2300 -2355 0
-2296 -2411 0
-2297 -2412 0
-2298 -2413 0
-2299 -2414 0
-2300 -2415 0
-2296 -2461 0
-2297 -2462 0
-2298 -2463 0
-2299 -2464 0
-2300 -2465 0
-2296 -2491 0
-2297 -2492 0
-2298 -2493 0
-2299 -2494 0
-2300 -2495 0
-2301 -2306 0
-2302 -2307 0
-2303 -2308 0
-2304 -2309 0
-2305 -2310 0
-2301 -2406 0
-2302 -2407 0
-2303 -2408 0
-2304 -2409 0
-2305 -2410 0
-2301 -2416 0
-2302 -2417 0
-2303 -2418 0
-2304 -2419 0
-2305 -2420 0
-2301 -2486 0
-2302 -2487 0
-2303 -2488 0
-2304 -2489 0
-2305 -2490 0
-2306 -2411 0
-2307 -2412 0
-2308 -2413 0
-2309 -2414 0
-2310 -2415 0
-2306 -2421 0
-2307 -2422 0
-2308 -2423 0
-2309 -2424 0
-2310 -2425 0
-2306 -2501 0
-2307 -2502 0
-2308 -2503 0
-2309 -2504 0
-2310 -2505 0
-2311 -2316 0
-2312 -2317 0
-2313 -2318 0
-2314 -2319 0
-2315 -2320 0
-2311 -2416 0
-2312 -2417 0
-2313 -2418 0
-2314 -2419 0
-2315 -2420 0
-2311 -2426 0
-2312 -2427 0
-2313 -2428 0
-2314 -2429 0
-2315 -2430 0
-2311 -2496 0
-2312 -2497 0
-2313 -2498 0
-2314 -2499 0
-2315 -2500 0
-2316 -2421 0
-2317 -2422 0
-2318 -2423 0
-2319 -2424 0
-2320 -2425 0
-2316 -2431 0
-2317 -2432 0
-2318 -2433 0
-2319 -2434 0
-2320 -2435 0
-2316 -2511 0
-2317 -2512 0
-2318 -2513 0
-2319 -2514 0
-2320 -2515 0
-2321 -2326 0
-2322 -2327 0
-2323 -2328 0
-2324 -2329 0
-2325 -2330 0
-2321 -2426 0
-2322 -2427 0
-2323 -2428 0
-2324 -2429 0
-2325 -2430 0
-2321 -2436 0
-2322 -2437 0
-2323 -2438 0
-2324 -2439 0
-2325 -2440 0
-2321 -2506 0
-2322 -2507 0
-2323 -2508 0
-2324 -2509 0
-2325 -2510 0
-2326 -2431 0
-2327 -2432 0
-2328 -2433 0
-2329 -2434 0
-2330 -2435 0
-2326 -2441 0
-2327 -2442 0
-2328 -2443 0
-2329 -2444 0
-2330 -2445 0
-2326 -2521 0
-2327 -2522 0
-2328 -2523 0
-2329 -2524 0
-2330 -2525 0
-2331 -2336 0
-2332 -2337 0
-2333 -2338 0
-2334 -2339 0
-2335 -2340 0
-2331 -2436 0
-2332 -2437 0
-2333 -2438 0
-2334 -2439 0
-2335 -2440 0
-2331 -2446 0
-2332 -2447 0
-2333 -2448 0
-2334 -2449 0
-2335 -2450 0
-2331 -2516 0
-2332 -2517 0
-2333 -2518 0
-2334 -2519 0
-2335 -2520 0
-2336 -2441 0
-2337 -2442 0
-2338 -2443 0
-2339 -2444 0
-2340 -2445 0
-2336 -2451 0
-2337 -2452 0
-2338 -2453 0
-2339 -2454 0
-2340 -2455 0
-2336 -2531 0
-2337 -2532 0
-2338 -2533 0
-2339 -2534 0
-2340 -2535 0
-2341 -2346 0
-2342 -2347 0
-2343 -2348 0
-2344 -2349 0
-2345 -2350 0
-2341 -2446 0
-2342 -2447 0
-2343 -2448 0
-2344 -2449 0
-2345 -2450 0
-2341 -2456 0
-2342 -2457 0
-2343 -2458 0
-2344 -2459 0
-2345 -2460 0
-2341 -2526 0
-2342 -2527 0
-2343 -2528 0
-2344 -2529 0
-2345 -2530 0
-2346 -2451 0
-2347 -2452 0
-2348 -2453 0
-2349 -2454 0
-2350 -2455 0
-2346 -2461 0
-2347 -2462 0
-2348 -2463 0
-2349 -2464 0
-2350 -2465 0
-2346 -2541 0
-2347 -2542 0
-2348 -2543 0
-2349 -2544 0
-2350 -2545 0
-2351 -2406 0
-2352 -2407 0
-2353 -2408 0
-2354 -2409 0
-2355 -2410 0
-2351 -2456 0
-2352 -2457 0
-2353 -2458 0
-2354 -2459 0
-2355 -2460 0
-2351 -2536 0
-2352 -2537 0
-2353 -2538 0
-2354 -2539 0
-2355 -2540 0
-2356 -2376 0
-2357 -2377 0
-2358 -2378 0
-2359 -2379 0
-2360 -2380 0
-2356 -2381 0
-2357 -2382 0
-2358 -2383 0
-2359 -2384 0
-2360 -2385 0
-2361 -2386 0
-2362 -2387 0
-2363 -2388 0
-2364 -2389 0
-2365 -2390 0
-2361 -2391 0
-2362 -2392 0
-2363 -2393 0
-2364 -2394 0
-2365 -2395 0
-2366 -2391 0
-2367 -2392 0
-2368 -2393 0
-2369 -2394 0
-2370 -2395 0
-2366 -2396 0
-2367 -2397 0
-2368 -2398 0
-2369 -2399 0
-2370 -2400 0
-2371 -2376 0
-2372 -2377 0
-2373 -2378 0
-2374 -2379 0
-2375 -2380 0
-2371 -2401 0
-2372 -2402 0
-2373 -2403 0
-2374 -2404 0
-2375 -2405 0
-2376 -2486 0
-2377 -2487 0
-2378 -2488 0
-2379 -2489 0
-2380 -2490 0
-2376 -2541 0
-2377 -2542 0
-2378 -2543 0
-2379 -2544 0
-2380 -2545 0
-2381 -2491 0
-2382 -2492 0
-2383 -2493 0
-2384 -2494 0
-2385 -2495 0
-2381 -2496 0
-2382 -2497 0
-2383 -2498 0
-2384 -2499 0
-2385 -2500 0
-2386 -2501 0
-2387 -2502 0
-2388 -2503 0
-2389 -2504 0
-2390 -2505 0
-2386 -2506 0
-2387 -2507 0
-2388 -2508 0
-2389 -2509 0
-2390 -2510 0
-2391 -2511 0
-2392 -2512 0
-2393 -2513 0
-2394 -2514 0
-2395 -2515 0
-2391 -2516 0
-2392 -2517 0
-2393 -2518 0
-2394 -2519 0
-2395 -2520 0
-2396 -2521 0
-2397 -2522 0
-2398 -2523 0
-2399 -2524 0
-2400 -2525 0
-2396 -2526 0
-2397 -2527 0
-2398 -2528 0
-2399 -2529 0
-2400 -2530 0
-2401 -2531 0
-2402 -2532 0
-2403 -2533 0
-2404 -2534 0
-2405 -2535 0
-2401 -2536 0
-2402 -2537 0
-2403 -2538 0
-2404 -2539 0
-2405 -2540 0
-2406 -2491 0
-2407 -2492 0
-2408 -2493 0
-2409 -2494 0
-2410 -2495 0
-2411 -2486 0
-2412 -2487 0
-2413 -2488 0
-2414 -2489 0
-2415 -2490 0
-2416 -2501 0
-2417 -2502 0
-2418 -2503 0
-2419 -2504 0
-2420 -2505 0
-2421 -2471 0
-2422 -2472 0
-2423 -2473 0
-2424 -2474 0
-2425 -2475 0
-2421 -2496 0
-2422 -2497 0
-2423 -2498 0
-2424 -2499 0
-2425 -2500 0
-2426 -2511 0
-2427 -2512 0
-2428 -2513 0
-2429 -2514 0
-2430 -2515 0
-2431 -2506 0
-2432 -2507 0
-2433 -2508 0
-2434 -2509 0
-2435 -2510 0
-2436 -2521 0
-2437 -2522 0
-2438 -2523 0
-2439 -2524 0
-2440 -2525 0
-2441 -2516 0
-2442 -2517 0
-2443 -2518 0
-2444 -2519 0
-2445 -2520 0
-2446 -2476 0
-2447 -2477 0
-2448 -2478 0
-2449 -2479 0
-2450 -2480 0
-2446 -2531 0
-2447 -2532 0
-2448 -2533 0
-2449 -2534 0
-2450 -2535 0
-2451 -2481 0
-2452 -2482 0
-2453 -2483 0
-2454 -2484 0
-2455 -2485 0
-2451 -2526 0
-2452 -2527 0
-2453 -2528 0
-2454 -2529 0
-2455 -2530 0
-2456 -2541 0
-2457 -2542 0
-2458 -2543 0
-2459 -2544 0
-2460 -2545 0
-2461 -2466 0
-2462 -2467 0
-2463 -2468 0
-2464 -2469 0
-2465 -2470 0
-2461 -2536 0
-2462 -2537 0
-2463 -2538 0
-2464 -2539 0
-2465 -2540 0
-2466 -2491 0
-2467 -2492 0
-2468 -2493 0
-2469 -2494 0
-2470 -2495 0
-2471 -2511 0
-2472 -2512 0
-2473 -2513 0
-2474 -2514 0
-2475 -2515 0
-2476 -2516 0
-2477 -2517 0
-2478 -2518 0
-2479 -2519 0
-2480 -2520 0
-2481 -2541 0
-2482 -2542 0
-2483 -2543 0
-2484 -2544 0
-2485 -2545 0
