p cnf 5085 37367
1 2 3 4 5 0
-1 -2 0
-1 -3 0
-1 -4 0
-1 -5 0
-2 -3 0
-2 -4 0
-2 -5 0
-3 -4 0
-3 -5 0
-4 -5 0
6 7 8 9 10 0
-6 -7 0
-6 -8 0
-6 -9 0
-6 -10 0
-7 -8 0
-7 -9 0
-7 -10 0
-8 -9 0
-8 -10 0
-9 -10 0
11 12 13 14 15 0
-11 -12 0
-11 -13 0
-11 -14 0
-11 -15 0
-12 -13 0
-12 -14 0
-12 -15 0
-13 -14 0
-13 -15 0
-14 -15 0
16 17 18 19 20 0
-16 -17 0
-16 -18 0
-16 -19 0
-16 -20 0
-17 -18 0
-17 -19 0
-17 -20 0
-18 -19 0
-18 -20 0
-19 -20 0
21 22 23 24 25 0
-21 -22 0
-21 -23 0
-21 -24 0
-21 -25 0
-22 -23 0
-22 -24 0
-22 -25 0
-23 -24 0
-23 -25 0
-24 -25 0
26 27 28 29 30 0
-26 -27 0
-26 -28 0
-26 -29 0
-26 -30 0
-27 -28 0
-27 -29 0
-27 -30 0
-28 -29 0
-28 -30 0
-29 -30 0
31 32 33 34 35 0
-31 -32 0
-31 -33 0
-31 -34 0
-31 -35 0
-32 -33 0
-32 -34 0
-32 -35 0
-33 -34 0
-33 -35 0
-34 -35 0
36 37 38 39 40 0
-36 -37 0
-36 -38 0
-36 -39 0
-36 -40 0
-37 -38 0
-37 -39 0
-37 -40 0
-38 -39 0
-38 -40 0
-39 -40 0
41 42 43 44 45 0
-41 -42 0
-41 -43 0
-41 -44 0
-41 -45 0
-42 -43 0
-42 -44 0
-42 -45 0
-43 -44 0
-43 -45 0
-44 -45 0
46 47 48 49 50 0
-46 -47 0
-46 -48 0
-46 -49 0
-46 -50 0
-47 -48 0
-47 -49 0
-47 -50 0
-48 -49 0
-48 -50 0
-49 -50 0
51 52 53 54 55 0
-51 -52 0
-51 -53 0
-51 -54 0
-51 -55 0
-52 -53 0
-52 -54 0
-52 -55 0
-53 -54 0
-53 -55 0
-54 -55 0
56 57 58 59 60 0
-56 -57 0
-56 -58 0
-56 -59 0
-56 -60 0
-57 -58 0
-57 -59 0
-57 -60 0
-58 -59 0
-58 -60 0
-59 -60 0
61 62 63 64 65 0
-61 -62 0
-61 -63 0
-61 -64 0
-61 -65 0
-62 -63 0
-62 -64 0
-62 -65 0
-63 -64 0
-63 -65 0
-64 -65 0
66 67 68 69 70 0
-66 -67 0
-66 -68 0
-66 -69 0
-66 -70 0
-67 -68 0
-67 -69 0
-67 -70 0
-68 -69 0
-68 -70 0
-69 -70 0
71 72 73 74 75 0
-71 -72 0
-71 -73 0
-71 -74 0
-71 -75 0
-72 -73 0
-72 -74 0
-72 -75 0
-73 -74 0
-73 -75 0
-74 -75 0
76 77 78 79 80 0
-76 -77 0
-76 -78 0
-76 -79 0
-76 -80 0
-77 -78 0
-77 -79 0
-77 -80 0
-78 -79 0
-78 -80 0
-79 -80 0
81 82 83 84 85 0
-81 -82 0
-81 -83 0
-81 -84 0
-81 -85 0
-82 -83 0
-82 -84 0
-82 -85 0
-83 -84 0
-83 -85 0
-84 -85 0
86 87 88 89 90 0
-86 -87 0
-86 -88 0
-86 -89 0
-86 -90 0
-87 -88 0
-87 -89 0
-87 -90 0
-88 -89 0
-88 -90 0
-89 -90 0
91 92 93 94 95 0
-91 -92 0
-91 -93 0
-91 -94 0
-91 -95 0
-92 -93 0
-92 -94 0
-92 -95 0
-93 -94 0
-93 -95 0
-94 -95 0
96 97 98 99 100 0
-96 -97 0
-96 -98 0
-96 -99 0
-96 -100 0
-97 -98 0
-97 -99 0
-97 -100 0
-98 -99 0
-98 -100 0
-99 -100 0
101 102 103 104 105 0
-101 -102 0
-101 -103 0
-101 -104 0
-101 -105 0
-102 -103 0
-102 -104 0
-102 -105 0
-103 -104 0
-103 -105 0
-104 -105 0
106 107 108 109 110 0
-106 -107 0
-106 -108 0
-106 -109 0
-106 -110 0
-107 -108 0
-107 -109 0
-107 -110 0
-108 -109 0
-108 -110 0
-109 -110 0
111 112 113 114 115 0
-111 -112 0
-111 -113 0
-111 -114 0
-111 -115 0
-112 -113 0
-112 -114 0
-112 -115 0
-113 -114 0
-113 -115 0
-114 -115 0
116 117 118 119 120 0
-116 -117 0
-116 -118 0
-116 -119 0
-116 -120 0
-117 -118 0
-117 -119 0
-117 -120 0
-118 -119 0
-118 -120 0
-119 -120 0
121 122 123 124 125 0
-121 -122 0
-121 -123 0
-121 -124 0
-121 -125 0
-122 -123 0
-122 -124 0
-122 -125 0
-123 -124 0
-123 -125 0
-124 -125 0
126 127 128 129 130 0
-126 -127 0
-126 -128 0
-126 -129 0
-126 -130 0
-127 -128 0
-127 -129 0
-127 -130 0
-128 -129 0
-128 -130 0
-129 -130 0
131 132 133 134 135 0
-131 -132 0
-131 -133 0
-131 -134 0
-131 -135 0
-132 -133 0
-132 -134 0
-132 -135 0
-133 -134 0
-133 -135 0
-134 -135 0
136 137 138 139 140 0
-136 -137 0
-136 -138 0
-136 -139 0
-136 -140 0
-137 -138 0
-137 -139 0
-137 -140 0
-138 -139 0
-138 -140 0
-139 -140 0
141 142 143 144 145 0
-141 -142 0
-141 -143 0
-141 -144 0
-141 -145 0
-142 -143 0
-142 -144 0
-142 -145 0
-143 -144 0
-143 -145 0
-144 -145 0
146 147 148 149 150 0
-146 -147 0
-146 -148 0
-146 -149 0
-146 -150 0
-147 -148 0
-147 -149 0
-147 -150 0
-148 -149 0
-148 -150 0
-149 -150 0
151 152 153 154 155 0
-151 -152 0
-151 -153 0
-151 -154 0
-151 -155 0
-152 -153 0
-152 -154 0
-152 -155 0
-153 -154 0
-153 -155 0
-154 -155 0
156 157 158 159 160 0
-156 -157 0
-156 -158 0
-156 -159 0
-156 -160 0
-157 -158 0
-157 -159 0
-157 -160 0
-158 -159 0
-158 -160 0
-159 -160 0
161 162 163 164 165 0
-161 -162 0
-161 -163 0
-161 -164 0
-161 -165 0
-162 -163 0
-162 -164 0
-162 -165 0
-163 -164 0
-163 -165 0
-164 -165 0
166 167 168 169 170 0
-166 -167 0
-166 -168 0
-166 -169 0
-166 -170 0
-167 -168 0
-167 -169 0
-167 -170 0
-168 -169 0
-168 -170 0
-169 -170 0
171 172 173 174 175 0
-171 -172 0
-171 -173 0
-171 -174 0
-171 -175 0
-172 -173 0
-172 -174 0
-172 -175 0
-173 -174 0
-173 -175 0
-174 -175 0
176 177 178 179 180 0
-176 -177 0
-176 -178 0
-176 -179 0
-176 -180 0
-177 -178 0
-177 -179 0
-177 -180 0
-178 -179 0
-178 -180 0
-179 -180 0
181 182 183 184 185 0
-181 -182 0
-181 -183 0
-181 -184 0
-181 -185 0
-182 -183 0
-182 -184 0
-182 -185 0
-183 -184 0
-183 -185 0
-184 -185 0
186 187 188 189 190 0
-186 -187 0
-186 -188 0
-186 -189 0
-186 -190 0
-187 -188 0
-187 -189 0
-187 -190 0
-188 -189 0
-188 -190 0
-189 -190 0
191 192 193 194 195 0
-191 -192 0
-191 -193 0
-191 -194 0
-191 -195 0
-192 -193 0
-192 -194 0
-192 -195 0
-193 -194 0
-193 -195 0
-194 -195 0
196 197 198 199 200 0
-196 -197 0
-196 -198 0
-196 -199 0
-196 -200 0
-197 -198 0
-197 -199 0
-197 -200 0
-198 -199 0
-198 -200 0
-199 -200 0
201 202 203 204 205 0
-201 -202 0
-201 -203 0
-201 -204 0
-201 -205 0
-202 -203 0
-202 -204 0
-202 -205 0
-203 -204 0
-203 -205 0
-204 -205 0
206 207 208 209 210 0
-206 -207 0
-206 -208 0
-206 -209 0
-206 -210 0
-207 -208 0
-207 -209 0
-207 -210 0
-208 -209 0
-208 -210 0
-209 -210 0
211 212 213 214 215 0
-211 -212 0
-211 -213 0
-211 -214 0
-211 -215 0
-212 -213 0
-212 -214 0
-212 -215 0
-213 -214 0
-213 -215 0
-214 -215 0
216 217 218 219 220 0
-216 -217 0
-216 -218 0
-216 -219 0
-216 -220 0
-217 -218 0
-217 -219 0
-217 -220 0
-218 -219 0
-218 -220 0
-219 -220 0
221 222 223 224 225 0
-221 -222 0
-221 -223 0
-221 -224 0
-221 -225 0
-222 -223 0
-222 -224 0
-222 -225 0
-223 -224 0
-223 -225 0
-224 -225 0
226 227 228 229 230 0
-226 -227 0
-226 -228 0
-226 -229 0
-226 -230 0
-227 -228 0
-227 -229 0
-227 -230 0
-228 -229 0
-228 -230 0
-229 -230 0
231 232 233 234 235 0
-231 -232 0
-231 -233 0
-231 -234 0
-231 -235 0
-232 -233 0
-232 -234 0
-232 -235 0
-233 -234 0
-233 -235 0
-234 -235 0
236 237 238 239 240 0
-236 -237 0
-236 -238 0
-236 -239 0
-236 -240 0
-237 -238 0
-237 -239 0
-237 -240 0
-238 -239 0
-238 -240 0
-239 -240 0
241 242 243 244 245 0
-241 -242 0
-241 -243 0
-241 -244 0
-241 -245 0
-242 -243 0
-242 -244 0
-242 -245 0
-243 -244 0
-243 -245 0
-244 -245 0
246 247 248 249 250 0
-246 -247 0
-246 -248 0
-246 -249 0
-246 -250 0
-247 -248 0
-247 -249 0
-247 -250 0
-248 -249 0
-248 -250 0
-249 -250 0
251 252 253 254 255 0
-251 -252 0
-251 -253 0
-251 -254 0
-251 -255 0
-252 -253 0
-252 -254 0
-252 -255 0
-253 -254 0
-253 -255 0
-254 -255 0
256 257 258 259 260 0
-256 -257 0
-256 -258 0
-256 -259 0
-256 -260 0
-257 -258 0
-257 -259 0
-257 -260 0
-258 -259 0
-258 -260 0
-259 -260 0
261 262 263 264 265 0
-261 -262 0
-261 -263 0
-261 -264 0
-261 -265 0
-262 -263 0
-262 -264 0
-262 -265 0
-263 -264 0
-263 -265 0
-264 -265 0
266 267 268 269 270 0
-266 -267 0
-266 -268 0
-266 -269 0
-266 -270 0
-267 -268 0
-267 -269 0
-267 -270 0
-268 -269 0
-268 -270 0
-269 -270 0
271 272 273 274 275 0
-271 -272 0
-271 -273 0
-271 -274 0
-271 -275 0
-272 -273 0
-272 -274 0
-272 -275 0
-273 -274 0
-273 -275 0
-274 -275 0
276 277 278 279 280 0
-276 -277 0
-276 -278 0
-276 -279 0
-276 -280 0
-277 -278 0
-277 -279 0
-277 -280 0
-278 -279 0
-278 -280 0
-279 -280 0
281 282 283 284 285 0
-281 -282 0
-281 -283 0
-281 -284 0
-281 -285 0
-282 -283 0
-282 -284 0
-282 -285 0
-283 -284 0
-283 -285 0
-284 -285 0
286 287 288 289 290 0
-286 -287 0
-286 -288 0
-286 -289 0
-286 -290 0
-287 -288 0
-287 -289 0
-287 -290 0
-288 -289 0
-288 -290 0
-289 -290 0
291 292 293 294 295 0
-291 -292 0
-291 -293 0
-291 -294 0
-291 -295 0
-292 -293 0
-292 -294 0
-292 -295 0
-293 -294 0
-293 -295 0
-294 -295 0
296 297 298 299 300 0
-296 -297 0
-296 -298 0
-296 -299 0
-296 -300 0
-297 -298 0
-297 -299 0
-297 -300 0
-298 -299 0
-298 -300 0
-299 -300 0
301 302 303 304 305 0
-301 -302 0
-301 -303 0
-301 -304 0
-301 -305 0
-302 -303 0
-302 -304 0
-302 -305 0
-303 -304 0
-303 -305 0
-304 -305 0
306 307 308 309 310 0
-306 -307 0
-306 -308 0
-306 -309 0
-306 -310 0
-307 -308 0
-307 -309 0
-307 -310 0
-308 -309 0
-308 -310 0
-309 -310 0
311 312 313 314 315 0
-311 -312 0
-311 -313 0
-311 -314 0
-311 -315 0
-312 -313 0
-312 -314 0
-312 -315 0
-313 -314 0
-313 -315 0
-314 -315 0
316 317 318 319 320 0
-316 -317 0
-316 -318 0
-316 -319 0
-316 -320 0
-317 -318 0
-317 -319 0
-317 -320 0
-318 -319 0
-318 -320 0
-319 -320 0
321 322 323 324 325 0
-321 -322 0
-321 -323 0
-321 -324 0
-321 -325 0
-322 -323 0
-322 -324 0
-322 -325 0
-323 -324 0
-323 -325 0
-324 -325 0
326 327 328 329 330 0
-326 -327 0
-326 -328 0
-326 -329 0
-326 -330 0
-327 -328 0
-327 -329 0
-327 -330 0
-328 -329 0
-328 -330 0
-329 -330 0
331 332 333 334 335 0
-331 -332 0
-331 -333 0
-331 -334 0
-331 -335 0
-332 -333 0
-332 -334 0
-332 -335 0
-333 -334 0
-333 -335 0
-334 -335 0
336 337 338 339 340 0
-336 -337 0
-336 -338 0
-336 -339 0
-336 -340 0
-337 -338 0
-337 -339 0
-337 -340 0
-338 -339 0
-338 -340 0
-339 -340 0
341 342 343 344 345 0
-341 -342 0
-341 -343 0
-341 -344 0
-341 -345 0
-342 -343 0
-342 -344 0
-342 -345 0
-343 -344 0
-343 -345 0
-344 -345 0
346 347 348 349 350 0
-346 -347 0
-346 -348 0
-346 -349 0
-346 -350 0
-347 -348 0
-347 -349 0
-347 -350 0
-348 -349 0
-348 -350 0
-349 -350 0
351 352 353 354 355 0
-351 -352 0
-351 -353 0
-351 -354 0
-351 -355 0
-352 -353 0
-352 -354 0
-352 -355 0
-353 -354 0
-353 -355 0
-354 -355 0
356 357 358 359 360 0
-356 -357 0
-356 -358 0
-356 -359 0
-356 -360 0
-357 -358 0
-357 -359 0
-357 -360 0
-358 -359 0
-358 -360 0
-359 -360 0
361 362 363 364 365 0
-361 -362 0
-361 -363 0
-361 -364 0
-361 -365 0
-362 -363 0
-362 -364 0
-362 -365 0
-363 -364 0
-363 -365 0
-364 -365 0
366 367 368 369 370 0
-366 -367 0
-366 -368 0
-366 -369 0
-366 -370 0
-367 -368 0
-367 -369 0
-367 -370 0
-368 -369 0
-368 -370 0
-369 -370 0
371 372 373 374 375 0
-371 -372 0
-371 -373 0
-371 -374 0
-371 -375 0
-372 -373 0
-372 -374 0
-372 -375 0
-373 -374 0
-373 -375 0
-374 -375 0
376 377 378 379 380 0
-376 -377 0
-376 -378 0
-376 -379 0
-376 -380 0
-377 -378 0
-377 -379 0
-377 -380 0
-378 -379 0
-378 -380 0
-379 -380 0
381 382 383 384 385 0
-381 -382 0
-381 -383 0
-381 -384 0
-381 -385 0
-382 -383 0
-382 -384 0
-382 -385 0
-383 -384 0
-383 -385 0
-384 -385 0
386 387 388 389 390 0
-386 -387 0
-386 -388 0
-386 -389 0
-386 -390 0
-387 -388 0
-387 -389 0
-387 -390 0
-388 -389 0
-388 -390 0
-389 -390 0
391 392 393 394 395 0
-391 -392 0
-391 -393 0
-391 -394 0
-391 -395 0
-392 -393 0
-392 -394 0
-392 -395 0
-393 -394 0
-393 -395 0
-394 -395 0
396 397 398 399 400 0
-396 -397 0
-396 -398 0
-396 -399 0
-396 -400 0
-397 -398 0
-397 -399 0
-397 -400 0
-398 -399 0
-398 -400 0
-399 -400 0
401 402 403 404 405 0
-401 -402 0
-401 -403 0
-401 -404 0
-401 -405 0
-402 -403 0
-402 -404 0
-402 -405 0
-403 -404 0
-403 -405 0
-404 -405 0
406 407 408 409 410 0
-406 -407 0
-406 -408 0
-406 -409 0
-406 -410 0
-407 -408 0
-407 -409 0
-407 -410 0
-408 -409 0
-408 -410 0
-409 -410 0
411 412 413 414 415 0
-411 -412 0
-411 -413 0
-411 -414 0
-411 -415 0
-412 -413 0
-412 -414 0
-412 -415 0
-413 -414 0
-413 -415 0
-414 -415 0
416 417 418 419 420 0
-416 -417 0
-416 -418 0
-416 -419 0
-416 -420 0
-417 -418 0
-417 -419 0
-417 -420 0
-418 -419 0
-418 -420 0
-419 -420 0
421 422 423 424 425 0
-421 -422 0
-421 -423 0
-421 -424 0
-421 -425 0
-422 -423 0
-422 -424 0
-422 -425 0
-423 -424 0
-423 -425 0
-424 -425 0
426 427 428 429 430 0
-426 -427 0
-426 -428 0
-426 -429 0
-426 -430 0
-427 -428 0
-427 -429 0
-427 -430 0
-428 -429 0
-428 -430 0
-429 -430 0
431 432 433 434 435 0
-431 -432 0
-431 -433 0
-431 -434 0
-431 -435 0
-432 -433 0
-432 -434 0
-432 -435 0
-433 -434 0
-433 -435 0
-434 -435 0
436 437 438 439 440 0
-436 -437 0
-436 -438 0
-436 -439 0
-436 -440 0
-437 -438 0
-437 -439 0
-437 -440 0
-438 -439 0
-438 -440 0
-439 -440 0
441 442 443 444 445 0
-441 -442 0
-441 -443 0
-441 -444 0
-441 -445 0
-442 -443 0
-442 -444 0
-442 -445 0
-443 -444 0
-443 -445 0
-444 -445 0
446 447 448 449 450 0
-446 -447 0
-446 -448 0
-446 -449 0
-446 -450 0
-447 -448 0
-447 -449 0
-447 -450 0
-448 -449 0
-448 -450 0
-449 -450 0
451 452 453 454 455 0
-451 -452 0
-451 -453 0
-451 -454 0
-451 -455 0
-452 -453 0
-452 -454 0
-452 -455 0
-453 -454 0
-453 -455 0
-454 -455 0
456 457 458 459 460 0
-456 -457 0
-456 -458 0
-456 -459 0
-456 -460 0
-457 -458 0
-457 -459 0
-457 -460 0
-458 -459 0
-458 -460 0
-459 -460 0
461 462 463 464 465 0
-461 -462 0
-461 -463 0
-461 -464 0
-461 -465 0
-462 -463 0
-462 -464 0
-462 -465 0
-463 -464 0
-463 -465 0
-464 -465 0
466 467 468 469 470 0
-466 -467 0
-466 -468 0
-466 -469 0
-466 -470 0
-467 -468 0
-467 -469 0
-467 -470 0
-468 -469 0
-468 -470 0
-469 -470 0
471 472 473 474 475 0
-471 -472 0
-471 -473 0
-471 -474 0
-471 -475 0
-472 -473 0
-472 -474 0
-472 -475 0
-473 -474 0
-473 -475 0
-474 -475 0
476 477 478 479 480 0
-476 -477 0
-476 -478 0
-476 -479 0
-476 -480 0
-477 -478 0
-477 -479 0
-477 -480 0
-478 -479 0
-478 -480 0
-479 -480 0
481 482 483 484 485 0
-481 -482 0
-481 -483 0
-481 -484 0
-481 -485 0
-482 -483 0
-482 -484 0
-482 -485 0
-483 -484 0
-483 -485 0
-484 -485 0
486 487 488 489 490 0
-486 -487 0
-486 -488 0
-486 -489 0
-486 -490 0
-487 -488 0
-487 -489 0
-487 -490 0
-488 -489 0
-488 -490 0
-489 -490 0
491 492 493 494 495 0
-491 -492 0
-491 -493 0
-491 -494 0
-491 -495 0
-492 -493 0
-492 -494 0
-492 -495 0
-493 -494 0
-493 -495 0
-494 -495 0
496 497 498 499 500 0
-496 -497 0
-496 -498 0
-496 -499 0
-496 -500 0
-497 -498 0
-497 -499 0
-497 -500 0
-498 -499 0
-498 -500 0
-499 -500 0
501 502 503 504 505 0
-501 -502 0
-501 -503 0
-501 -504 0
-501 -505 0
-502 -503 0
-502 -504 0
-502 -505 0
-503 -504 0
-503 -505 0
-504 -505 0
506 507 508 509 510 0
-506 -507 0
-506 -508 0
-506 -509 0
-506 -510 0
-507 -508 0
-507 -509 0
-507 -510 0
-508 -509 0
-508 -510 0
-509 -510 0
511 512 513 514 515 0
-511 -512 0
-511 -513 0
-511 -514 0
-511 -515 0
-512 -513 0
-512 -514 0
-512 -515 0
-513 -514 0
-513 -515 0
-514 -515 0
516 517 518 519 520 0
-516 -517 0
-516 -518 0
-516 -519 0
-516 -520 0
-517 -518 0
-517 -519 0
-517 -520 0
-518 -519 0
-518 -520 0
-519 -520 0
521 522 523 524 525 0
-521 -522 0
-521 -523 0
-521 -524 0
-521 -525 0
-522 -523 0
-522 -524 0
-522 -525 0
-523 -524 0
-523 -525 0
-524 -525 0
526 527 528 529 530 0
-526 -527 0
-526 -528 0
-526 -529 0
-526 -530 0
-527 -528 0
-527 -529 0
-527 -530 0
-528 -529 0
-528 -530 0
-529 -530 0
531 532 533 534 535 0
-531 -532 0
-531 -533 0
-531 -534 0
-531 -535 0
-532 -533 0
-532 -534 0
-532 -535 0
-533 -534 0
-533 -535 0
-534 -535 0
536 537 538 539 540 0
-536 -537 0
-536 -538 0
-536 -539 0
-536 -540 0
-537 -538 0
-537 -539 0
-537 -540 0
-538 -539 0
-538 -540 0
-539 -540 0
541 542 543 544 545 0
-541 -542 0
-541 -543 0
-541 -544 0
-541 -545 0
-542 -543 0
-542 -544 0
-542 -545 0
-543 -544 0
-543 -545 0
-544 -545 0
546 547 548 549 550 0
-546 -547 0
-546 -548 0
-546 -549 0
-546 -550 0
-547 -548 0
-547 -549 0
-547 -550 0
-548 -549 0
-548 -550 0
-549 -550 0
551 552 553 554 555 0
-551 -552 0
-551 -553 0
-551 -554 0
-551 -555 0
-552 -553 0
-552 -554 0
-552 -555 0
-553 -554 0
-553 -555 0
-554 -555 0
556 557 558 559 560 0
-556 -557 0
-556 -558 0
-556 -559 0
-556 -560 0
-557 -558 0
-557 -559 0
-557 -560 0
-558 -559 0
-558 -560 0
-559 -560 0
561 562 563 564 565 0
-561 -562 0
-561 -563 0
-561 -564 0
-561 -565 0
-562 -563 0
-562 -564 0
-562 -565 0
-563 -564 0
-563 -565 0
-564 -565 0
566 567 568 569 570 0
-566 -567 0
-566 -568 0
-566 -569 0
-566 -570 0
-567 -568 0
-567 -569 0
-567 -570 0
-568 -569 0
-568 -570 0
-569 -570 0
571 572 573 574 575 0
-571 -572 0
-571 -573 0
-571 -574 0
-571 -575 0
-572 -573 0
-572 -574 0
-572 -575 0
-573 -574 0
-573 -575 0
-574 -575 0
576 577 578 579 580 0
-576 -577 0
-576 -578 0
-576 -579 0
-576 -580 0
-577 -578 0
-577 -579 0
-577 -580 0
-578 -579 0
-578 -580 0
-579 -580 0
581 582 583 584 585 0
-581 -582 0
-581 -583 0
-581 -584 0
-581 -585 0
-582 -583 0
-582 -584 0
-582 -585 0
-583 -584 0
-583 -585 0
-584 -585 0
586 587 588 589 590 0
-586 -587 0
-586 -588 0
-586 -589 0
-586 -590 0
-587 -588 0
-587 -589 0
-587 -590 0
-588 -589 0
-588 -590 0
-589 -590 0
591 592 593 594 595 0
-591 -592 0
-591 -593 0
-591 -594 0
-591 -595 0
-592 -593 0
-592 -594 0
-592 -595 0
-593 -594 0
-593 -595 0
-594 -595 0
596 597 598 599 600 0
-596 -597 0
-596 -598 0
-596 -599 0
-596 -600 0
-597 -598 0
-597 -599 0
-597 -600 0
-598 -599 0
-598 -600 0
-599 -600 0
601 602 603 604 605 0
-601 -602 0
-601 -603 0
-601 -604 0
-601 -605 0
-602 -603 0
-602 -604 0
-602 -605 0
-603 -604 0
-603 -605 0
-604 -605 0
606 607 608 609 610 0
-606 -607 0
-606 -608 0
-606 -609 0
-606 -610 0
-607 -608 0
-607 -609 0
-607 -610 0
-608 -609 0
-608 -610 0
-609 -610 0
611 612 613 614 615 0
-611 -612 0
-611 -613 0
-611 -614 0
-611 -615 0
-612 -613 0
-612 -614 0
-612 -615 0
-613 -614 0
-613 -615 0
-614 -615 0
616 617 618 619 620 0
-616 -617 0
-616 -618 0
-616 -619 0
-616 -620 0
-617 -618 0
-617 -619 0
-617 -620 0
-618 -619 0
-618 -620 0
-619 -620 0
621 622 623 624 625 0
-621 -622 0
-621 -623 0
-621 -624 0
-621 -625 0
-622 -623 0
-622 -624 0
-622 -625 0
-623 -624 0
-623 -625 0
-624 -625 0
626 627 628 629 630 0
-626 -627 0
-626 -628 0
-626 -629 0
-626 -630 0
-627 -628 0
-627 -629 0
-627 -630 0
-628 -629 0
-628 -630 0
-629 -630 0
631 632 633 634 635 0
-631 -632 0
-631 -633 0
-631 -634 0
-631 -635 0
-632 -633 0
-632 -634 0
-632 -635 0
-633 -634 0
-633 -635 0
-634 -635 0
636 637 638 639 640 0
-636 -637 0
-636 -638 0
-636 -639 0
-636 -640 0
-637 -638 0
-637 -639 0
-637 -640 0
-638 -639 0
-638 -640 0
-639 -640 0
641 642 643 644 645 0
-641 -642 0
-641 -643 0
-641 -644 0
-641 -645 0
-642 -643 0
-642 -644 0
-642 -645 0
-643 -644 0
-643 -645 0
-644 -645 0
646 647 648 649 650 0
-646 -647 0
-646 -648 0
-646 -649 0
-646 -650 0
-647 -648 0
-647 -649 0
-647 -650 0
-648 -649 0
-648 -650 0
-649 -650 0
651 652 653 654 655 0
-651 -652 0
-651 -653 0
-651 -654 0
-651 -655 0
-652 -653 0
-652 -654 0
-652 -655 0
-653 -654 0
-653 -655 0
-654 -655 0
656 657 658 659 660 0
-656 -657 0
-656 -658 0
-656 -659 0
-656 -660 0
-657 -658 0
-657 -659 0
-657 -660 0
-658 -659 0
-658 -660 0
-659 -660 0
661 662 663 664 665 0
-661 -662 0
-661 -663 0
-661 -664 0
-661 -665 0
-662 -663 0
-662 -664 0
-662 -665 0
-663 -664 0
-663 -665 0
-664 -665 0
666 667 668 669 670 0
-666 -667 0
-666 -668 0
-666 -669 0
-666 -670 0
-667 -668 0
-667 -669 0
-667 -670 0
-668 -669 0
-668 -670 0
-669 -670 0
671 672 673 674 675 0
-671 -672 0
-671 -673 0
-671 -674 0
-671 -675 0
-672 -673 0
-672 -674 0
-672 -675 0
-673 -674 0
-673 -675 0
-674 -675 0
676 677 678 679 680 0
-676 -677 0
-676 -678 0
-676 -679 0
-676 -680 0
-677 -678 0
-677 -679 0
-677 -680 0
-678 -679 0
-678 -680 0
-679 -680 0
681 682 683 684 685 0
-681 -682 0
-681 -683 0
-681 -684 0
-681 -685 0
-682 -683 0
-682 -684 0
-682 -685 0
-683 -684 0
-683 -685 0
-684 -685 0
686 687 688 689 690 0
-686 -687 0
-686 -688 0
-686 -689 0
-686 -690 0
-687 -688 0
-687 -689 0
-687 -690 0
-688 -689 0
-688 -690 0
-689 -690 0
691 692 693 694 695 0
-691 -692 0
-691 -693 0
-691 -694 0
-691 -695 0
-692 -693 0
-692 -694 0
-692 -695 0
-693 -694 0
-693 -695 0
-694 -695 0
696 697 698 699 700 0
-696 -697 0
-696 -698 0
-696 -699 0
-696 -700 0
-697 -698 0
-697 -699 0
-697 -700 0
-698 -699 0
-698 -700 0
-699 -700 0
701 702 703 704 705 0
-701 -702 0
-701 -703 0
-701 -704 0
-701 -705 0
-702 -703 0
-702 -704 0
-702 -705 0
-703 -704 0
-703 -705 0
-704 -705 0
706 707 708 709 710 0
-706 -707 0
-706 -708 0
-706 -709 0
-706 -710 0
-707 -708 0
-707 -709 0
-707 -710 0
-708 -709 0
-708 -710 0
-709 -710 0
711 712 713 714 715 0
-711 -712 0
-711 -713 0
-711 -714 0
-711 -715 0
-712 -713 0
-712 -714 0
-712 -715 0
-713 -714 0
-713 -715 0
-714 -715 0
716 717 718 719 720 0
-716 -717 0
-716 -718 0
-716 -719 0
-716 -720 0
-717 -718 0
-717 -719 0
-717 -720 0
-718 -719 0
-718 -720 0
-719 -720 0
721 722 723 724 725 0
-721 -722 0
-721 -723 0
-721 -724 0
-721 -725 0
-722 -723 0
-722 -724 0
-722 -725 0
-723 -724 0
-723 -725 0
-724 -725 0
726 727 728 729 730 0
-726 -727 0
-726 -728 0
-726 -729 0
-726 -730 0
-727 -728 0
-727 -729 0
-727 -730 0
-728 -729 0
-728 -730 0
-729 -730 0
731 732 733 734 735 0
-731 -732 0
-731 -733 0
-731 -734 0
-731 -735 0
-732 -733 0
-732 -734 0
-732 -735 0
-733 -734 0
-733 -735 0
-734 -735 0
736 737 738 739 740 0
-736 -737 0
-736 -738 0
-736 -739 0
-736 -740 0
-737 -738 0
-737 -739 0
-737 -740 0
-738 -739 0
-738 -740 0
-739 -740 0
741 742 743 744 745 0
-741 -742 0
-741 -743 0
-741 -744 0
-741 -745 0
-742 -743 0
-742 -744 0
-742 -745 0
-743 -744 0
-743 -745 0
-744 -745 0
746 747 748 749 750 0
-746 -747 0
-746 -748 0
-746 -749 0
-746 -750 0
-747 -748 0
-747 -749 0
-747 -750 0
-748 -749 0
-748 -750 0
-749 -750 0
751 752 753 754 755 0
-751 -752 0
-751 -753 0
-751 -754 0
-751 -755 0
-752 -753 0
-752 -754 0
-752 -755 0
-753 -754 0
-753 -755 0
-754 -755 0
756 757 758 759 760 0
-756 -757 0
-756 -758 0
-756 -759 0
-756 -760 0
-757 -758 0
-757 -759 0
-757 -760 0
-758 -759 0
-758 -760 0
-759 -760 0
761 762 763 764 765 0
-761 -762 0
-761 -763 0
-761 -764 0
-761 -765 0
-762 -763 0
-762 -764 0
-762 -765 0
-763 -764 0
-763 -765 0
-764 -765 0
766 767 768 769 770 0
-766 -767 0
-766 -768 0
-766 -769 0
-766 -770 0
-767 -768 0
-767 -769 0
-767 -770 0
-768 -769 0
-768 -770 0
-769 -770 0
771 772 773 774 775 0
-771 -772 0
-771 -773 0
-771 -774 0
-771 -775 0
-772 -773 0
-772 -774 0
-772 -775 0
-773 -774 0
-773 -775 0
-774 -775 0
776 777 778 779 780 0
-776 -777 0
-776 -778 0
-776 -779 0
-776 -780 0
-777 -778 0
-777 -779 0
-777 -780 0
-778 -779 0
-778 -780 0
-779 -780 0
781 782 783 784 785 0
-781 -782 0
-781 -783 0
-781 -784 0
-781 -785 0
-782 -783 0
-782 -784 0
-782 -785 0
-783 -784 0
-783 -785 0
-784 -785 0
786 787 788 789 790 0
-786 -787 0
-786 -788 0
-786 -789 0
-786 -790 0
-787 -788 0
-787 -789 0
-787 -790 0
-788 -789 0
-788 -790 0
-789 -790 0
791 792 793 794 795 0
-791 -792 0
-791 -793 0
-791 -794 0
-791 -795 0
-792 -793 0
-792 -794 0
-792 -795 0
-793 -794 0
-793 -795 0
-794 -795 0
796 797 798 799 800 0
-796 -797 0
-796 -798 0
-796 -799 0
-796 -800 0
-797 -798 0
-797 -799 0
-797 -800 0
-798 -799 0
-798 -800 0
-799 -800 0
801 802 803 804 805 0
-801 -802 0
-801 -803 0
-801 -804 0
-801 -805 0
-802 -803 0
-802 -804 0
-802 -805 0
-803 -804 0
-803 -805 0
-804 -805 0
806 807 808 809 810 0
-806 -807 0
-806 -808 0
-806 -809 0
-806 -810 0
-807 -808 0
-807 -809 0
-807 -810 0
-808 -809 0
-808 -810 0
-809 -810 0
811 812 813 814 815 0
-811 -812 0
-811 -813 0
-811 -814 0
-811 -815 0
-812 -813 0
-812 -814 0
-812 -815 0
-813 -814 0
-813 -815 0
-814 -815 0
816 817 818 819 820 0
-816 -817 0
-816 -818 0
-816 -819 0
-816 -820 0
-817 -818 0
-817 -819 0
-817 -820 0
-818 -819 0
-818 -820 0
-819 -820 0
821 822 823 824 825 0
-821 -822 0
-821 -823 0
-821 -824 0
-821 -825 0
-822 -823 0
-822 -824 0
-822 -825 0
-823 -824 0
-823 -825 0
-824 -825 0
826 827 828 829 830 0
-826 -827 0
-826 -828 0
-826 -829 0
-826 -830 0
-827 -828 0
-827 -829 0
-827 -830 0
-828 -829 0
-828 -830 0
-829 -830 0
831 832 833 834 835 0
-831 -832 0
-831 -833 0
-831 -834 0
-831 -835 0
-832 -833 0
-832 -834 0
-832 -835 0
-833 -834 0
-833 -835 0
-834 -835 0
836 837 838 839 840 0
-836 -837 0
-836 -838 0
-836 -839 0
-836 -840 0
-837 -838 0
-837 -839 0
-837 -840 0
-838 -839 0
-838 -840 0
-839 -840 0
841 842 843 844 845 0
-841 -842 0
-841 -843 0
-841 -844 0
-841 -845 0
-842 -843 0
-842 -844 0
-842 -845 0
-843 -844 0
-843 -845 0
-844 -845 0
846 847 848 849 850 0
-846 -847 0
-846 -848 0
-846 -849 0
-846 -850 0
-847 -848 0
-847 -849 0
-847 -850 0
-848 -849 0
-848 -850 0
-849 -850 0
851 852 853 854 855 0
-851 -852 0
-851 -853 0
-851 -854 0
-851 -855 0
-852 -853 0
-852 -854 0
-852 -855 0
-853 -854 0
-853 -855 0
-854 -855 0
856 857 858 859 860 0
-856 -857 0
-856 -858 0
-856 -859 0
-856 -860 0
-857 -858 0
-857 -859 0
-857 -860 0
-858 -859 0
-858 -860 0
-859 -860 0
861 862 863 864 865 0
-861 -862 0
-861 -863 0
-861 -864 0
-861 -865 0
-862 -863 0
-862 -864 0
-862 -865 0
-863 -864 0
-863 -865 0
-864 -865 0
866 867 868 869 870 0
-866 -867 0
-866 -868 0
-866 -869 0
-866 -870 0
-867 -868 0
-867 -869 0
-867 -870 0
-868 -869 0
-868 -870 0
-869 -870 0
871 872 873 874 875 0
-871 -872 0
-871 -873 0
-871 -874 0
-871 -875 0
-872 -873 0
-872 -874 0
-872 -875 0
-873 -874 0
-873 -875 0
-874 -875 0
876 877 878 879 880 0
-876 -877 0
-876 -878 0
-876 -879 0
-876 -880 0
-877 -878 0
-877 -879 0
-877 -880 0
-878 -879 0
-878 -880 0
-879 -880 0
881 882 883 884 885 0
-881 -882 0
-881 -883 0
-881 -884 0
-881 -885 0
-882 -883 0
-882 -884 0
-882 -885 0
-883 -884 0
-883 -885 0
-884 -885 0
886 887 888 889 890 0
-886 -887 0
-886 -888 0
-886 -889 0
-886 -890 0
-887 -888 0
-887 -889 0
-887 -890 0
-888 -889 0
-888 -890 0
-889 -890 0
891 892 893 894 895 0
-891 -892 0
-891 -893 0
-891 -894 0
-891 -895 0
-892 -893 0
-892 -894 0
-892 -895 0
-893 -894 0
-893 -895 0
-894 -895 0
896 897 898 899 900 0
-896 -897 0
-896 -898 0
-896 -899 0
-896 -900 0
-897 -898 0
-897 -899 0
-897 -900 0
-898 -899 0
-898 -900 0
-899 -900 0
901 902 903 904 905 0
-901 -902 0
-901 -903 0
-901 -904 0
-901 -905 0
-902 -903 0
-902 -904 0
-902 -905 0
-903 -904 0
-903 -905 0
-904 -905 0
906 907 908 909 910 0
-906 -907 0
-906 -908 0
-906 -909 0
-906 -910 0
-907 -908 0
-907 -909 0
-907 -910 0
-908 -909 0
-908 -910 0
-909 -910 0
911 912 913 914 915 0
-911 -912 0
-911 -913 0
-911 -914 0
-911 -915 0
-912 -913 0
-912 -914 0
-912 -915 0
-913 -914 0
-913 -915 0
-914 -915 0
916 917 918 919 920 0
-916 -917 0
-916 -918 0
-916 -919 0
-916 -920 0
-917 -918 0
-917 -919 0
-917 -920 0
-918 -919 0
-918 -920 0
-919 -920 0
921 922 923 924 925 0
-921 -922 0
-921 -923 0
-921 -924 0
-921 -925 0
-922 -923 0
-922 -924 0
-922 -925 0
-923 -924 0
-923 -925 0
-924 -925 0
926 927 928 929 930 0
-926 -927 0
-926 -928 0
-926 -929 0
-926 -930 0
-927 -928 0
-927 -929 0
-927 -930 0
-928 -929 0
-928 -930 0
-929 -930 0
931 932 933 934 935 0
-931 -932 0
-931 -933 0
-931 -934 0
-931 -935 0
-932 -933 0
-932 -934 0
-932 -935 0
-933 -934 0
-933 -935 0
-934 -935 0
936 937 938 939 940 0
-936 -937 0
-936 -938 0
-936 -939 0
-936 -940 0
-937 -938 0
-937 -939 0
-937 -940 0
-938 -939 0
-938 -940 0
-939 -940 0
941 942 943 944 945 0
-941 -942 0
-941 -943 0
-941 -944 0
-941 -945 0
-942 -943 0
-942 -944 0
-942 -945 0
-943 -944 0
-943 -945 0
-944 -945 0
946 947 948 949 950 0
-946 -947 0
-946 -948 0
-946 -949 0
-946 -950 0
-947 -948 0
-947 -949 0
-947 -950 0
-948 -949 0
-948 -950 0
-949 -950 0
951 952 953 954 955 0
-951 -952 0
-951 -953 0
-951 -954 0
-951 -955 0
-952 -953 0
-952 -954 0
-952 -955 0
-953 -954 0
-953 -955 0
-954 -955 0
956 957 958 959 960 0
-956 -957 0
-956 -958 0
-956 -959 0
-956 -960 0
-957 -958 0
-957 -959 0
-957 -960 0
-958 -959 0
-958 -960 0
-959 -960 0
961 962 963 964 965 0
-961 -962 0
-961 -963 0
-961 -964 0
-961 -965 0
-962 -963 0
-962 -964 0
-962 -965 0
-963 -964 0
-963 -965 0
-964 -965 0
966 967 968 969 970 0
-966 -967 0
-966 -968 0
-966 -969 0
-966 -970 0
-967 -968 0
-967 -969 0
-967 -970 0
-968 -969 0
-968 -970 0
-969 -970 0
971 972 973 974 975 0
-971 -972 0
-971 -973 0
-971 -974 0
-971 -975 0
-972 -973 0
-972 -974 0
-972 -975 0
-973 -974 0
-973 -975 0
-974 -975 0
976 977 978 979 980 0
-976 -977 0
-976 -978 0
-976 -979 0
-976 -980 0
-977 -978 0
-977 -979 0
-977 -980 0
-978 -979 0
-978 -980 0
-979 -980 0
981 982 983 984 985 0
-981 -982 0
-981 -983 0
-981 -984 0
-981 -985 0
-982 -983 0
-982 -984 0
-982 -985 0
-983 -984 0
-983 -985 0
-984 -985 0
986 987 988 989 990 0
-986 -987 0
-986 -988 0
-986 -989 0
-986 -990 0
-987 -988 0
-987 -989 0
-987 -990 0
-988 -989 0
-988 -990 0
-989 -990 0
991 992 993 994 995 0
-991 -992 0
-991 -993 0
-991 -994 0
-991 -995 0
-992 -993 0
-992 -994 0
-992 -995 0
-993 -994 0
-993 -995 0
-994 -995 0
996 997 998 999 1000 0
-996 -997 0
-996 -998 0
-996 -999 0
-996 -1000 0
-997 -998 0
-997 -999 0
-997 -1000 0
-998 -999 0
-998 -1000 0
-999 -1000 0
1001 1002 1003 1004 1005 0
-1001 -1002 0
-1001 -1003 0
-1001 -1004 0
-1001 -1005 0
-1002 -1003 0
-1002 -1004 0
-1002 -1005 0
-1003 -1004 0
-1003 -1005 0
-1004 -1005 0
1006 1007 1008 1009 1010 0
-1006 -1007 0
-1006 -1008 0
-1006 -1009 0
-1006 -1010 0
-1007 -1008 0
-1007 -1009 0
-1007 -1010 0
-1008 -1009 0
-1008 -1010 0
-1009 -1010 0
1011 1012 1013 1014 1015 0
-1011 -1012 0
-1011 -1013 0
-1011 -1014 0
-1011 -1015 0
-1012 -1013 0
-1012 -1014 0
-1012 -1015 0
-1013 -1014 0
-1013 -1015 0
-1014 -1015 0
1016 1017 1018 1019 1020 0
-1016 -1017 0
-1016 -1018 0
-1016 -1019 0
-1016 -1020 0
-1017 -1018 0
-1017 -1019 0
-1017 -1020 0
-1018 -1019 0
-1018 -1020 0
-1019 -1020 0
1021 1022 1023 1024 1025 0
-1021 -1022 0
-1021 -1023 0
-1021 -1024 0
-1021 -1025 0
-1022 -1023 0
-1022 -1024 0
-1022 -1025 0
-1023 -1024 0
-1023 -1025 0
-1024 -1025 0
1026 1027 1028 1029 1030 0
-1026 -1027 0
-1026 -1028 0
-1026 -1029 0
-1026 -1030 0
-1027 -1028 0
-1027 -1029 0
-1027 -1030 0
-1028 -1029 0
-1028 -1030 0
-1029 -1030 0
1031 1032 1033 1034 1035 0
-1031 -1032 0
-1031 -1033 0
-1031 -1034 0
-1031 -1035 0
-1032 -1033 0
-1032 -1034 0
-1032 -1035 0
-1033 -1034 0
-1033 -1035 0
-1034 -1035 0
1036 1037 1038 1039 1040 0
-1036 -1037 0
-1036 -1038 0
-1036 -1039 0
-1036 -1040 0
-1037 -1038 0
-1037 -1039 0
-1037 -1040 0
-1038 -1039 0
-1038 -1040 0
-1039 -1040 0
1041 1042 1043 1044 1045 0
-1041 -1042 0
-1041 -1043 0
-1041 -1044 0
-1041 -1045 0
-1042 -1043 0
-1042 -1044 0
-1042 -1045 0
-1043 -1044 0
-1043 -1045 0
-1044 -1045 0
1046 1047 1048 1049 1050 0
-1046 -1047 0
-1046 -1048 0
-1046 -1049 0
-1046 -1050 0
-1047 -1048 0
-1047 -1049 0
-1047 -1050 0
-1048 -1049 0
-1048 -1050 0
-1049 -1050 0
1051 1052 1053 1054 1055 0
-1051 -1052 0
-1051 -1053 0
-1051 -1054 0
-1051 -1055 0
-1052 -1053 0
-1052 -1054 0
-1052 -1055 0
-1053 -1054 0
-1053 -1055 0
-1054 -1055 0
1056 1057 1058 1059 1060 0
-1056 -1057 0
-1056 -1058 0
-1056 -1059 0
-1056 -1060 0
-1057 -1058 0
-1057 -1059 0
-1057 -1060 0
-1058 -1059 0
-1058 -1060 0
-1059 -1060 0
1061 1062 1063 1064 1065 0
-1061 -1062 0
-1061 -1063 0
-1061 -1064 0
-1061 -1065 0
-1062 -1063 0
-1062 -1064 0
-1062 -1065 0
-1063 -1064 0
-1063 -1065 0
-1064 -1065 0
1066 1067 1068 1069 1070 0
-1066 -1067 0
-1066 -1068 0
-1066 -1069 0
-1066 -1070 0
-1067 -1068 0
-1067 -1069 0
-1067 -1070 0
-1068 -1069 0
-1068 -1070 0
-1069 -1070 0
1071 1072 1073 1074 1075 0
-1071 -1072 0
-1071 -1073 0
-1071 -1074 0
-1071 -1075 0
-1072 -1073 0
-1072 -1074 0
-1072 -1075 0
-1073 -1074 0
-1073 -1075 0
-1074 -1075 0
1076 1077 1078 1079 1080 0
-1076 -1077 0
-1076 -1078 0
-1076 -1079 0
-1076 -1080 0
-1077 -1078 0
-1077 -1079 0
-1077 -1080 0
-1078 -1079 0
-1078 -1080 0
-1079 -1080 0
1081 1082 1083 1084 1085 0
-1081 -1082 0
-1081 -1083 0
-1081 -1084 0
-1081 -1085 0
-1082 -1083 0
-1082 -1084 0
-1082 -1085 0
-1083 -1084 0
-1083 -1085 0
-1084 -1085 0
1086 1087 1088 1089 1090 0
-1086 -1087 0
-1086 -1088 0
-1086 -1089 0
-1086 -1090 0
-1087 -1088 0
-1087 -1089 0
-1087 -1090 0
-1088 -1089 0
-1088 -1090 0
-1089 -1090 0
1091 1092 1093 1094 1095 0
-1091 -1092 0
-1091 -1093 0
-1091 -1094 0
-1091 -1095 0
-1092 -1093 0
-1092 -1094 0
-1092 -1095 0
-1093 -1094 0
-1093 -1095 0
-1094 -1095 0
1096 1097 1098 1099 1100 0
-1096 -1097 0
-1096 -1098 0
-1096 -1099 0
-1096 -1100 0
-1097 -1098 0
-1097 -1099 0
-1097 -1100 0
-1098 -1099 0
-1098 -1100 0
-1099 -1100 0
1101 1102 1103 1104 1105 0
-1101 -1102 0
-1101 -1103 0
-1101 -1104 0
-1101 -1105 0
-1102 -1103 0
-1102 -1104 0
-1102 -1105 0
-1103 -1104 0
-1103 -1105 0
-1104 -1105 0
1106 1107 1108 1109 1110 0
-1106 -1107 0
-1106 -1108 0
-1106 -1109 0
-1106 -1110 0
-1107 -1108 0
-1107 -1109 0
-1107 -1110 0
-1108 -1109 0
-1108 -1110 0
-1109 -1110 0
1111 1112 1113 1114 1115 0
-1111 -1112 0
-1111 -1113 0
-1111 -1114 0
-1111 -1115 0
-1112 -1113 0
-1112 -1114 0
-1112 -1115 0
-1113 -1114 0
-1113 -1115 0
-1114 -1115 0
1116 1117 1118 1119 1120 0
-1116 -1117 0
-1116 -1118 0
-1116 -1119 0
-1116 -1120 0
-1117 -1118 0
-1117 -1119 0
-1117 -1120 0
-1118 -1119 0
-1118 -1120 0
-1119 -1120 0
1121 1122 1123 1124 1125 0
-1121 -1122 0
-1121 -1123 0
-1121 -1124 0
-1121 -1125 0
-1122 -1123 0
-1122 -1124 0
-1122 -1125 0
-1123 -1124 0
-1123 -1125 0
-1124 -1125 0
1126 1127 1128 1129 1130 0
-1126 -1127 0
-1126 -1128 0
-1126 -1129 0
-1126 -1130 0
-1127 -1128 0
-1127 -1129 0
-1127 -1130 0
-1128 -1129 0
-1128 -1130 0
-1129 -1130 0
1131 1132 1133 1134 1135 0
-1131 -1132 0
-1131 -1133 0
-1131 -1134 0
-1131 -1135 0
-1132 -1133 0
-1132 -1134 0
-1132 -1135 0
-1133 -1134 0
-1133 -1135 0
-1134 -1135 0
1136 1137 1138 1139 1140 0
-1136 -1137 0
-1136 -1138 0
-1136 -1139 0
-1136 -1140 0
-1137 -1138 0
-1137 -1139 0
-1137 -1140 0
-1138 -1139 0
-1138 -1140 0
-1139 -1140 0
1141 1142 1143 1144 1145 0
-1141 -1142 0
-1141 -1143 0
-1141 -1144 0
-1141 -1145 0
-1142 -1143 0
-1142 -1144 0
-1142 -1145 0
-1143 -1144 0
-1143 -1145 0
-1144 -1145 0
1146 1147 1148 1149 1150 0
-1146 -1147 0
-1146 -1148 0
-1146 -1149 0
-1146 -1150 0
-1147 -1148 0
-1147 -1149 0
-1147 -1150 0
-1148 -1149 0
-1148 -1150 0
-1149 -1150 0
1151 1152 1153 1154 1155 0
-1151 -1152 0
-1151 -1153 0
-1151 -1154 0
-1151 -1155 0
-1152 -1153 0
-1152 -1154 0
-1152 -1155 0
-1153 -1154 0
-1153 -1155 0
-1154 -1155 0
1156 1157 1158 1159 1160 0
-1156 -1157 0
-1156 -1158 0
-1156 -1159 0
-1156 -1160 0
-1157 -1158 0
-1157 -1159 0
-1157 -1160 0
-1158 -1159 0
-1158 -1160 0
-1159 -1160 0
1161 1162 1163 1164 1165 0
-1161 -1162 0
-1161 -1163 0
-1161 -1164 0
-1161 -1165 0
-1162 -1163 0
-1162 -1164 0
-1162 -1165 0
-1163 -1164 0
-1163 -1165 0
-1164 -1165 0
1166 1167 1168 1169 1170 0
-1166 -1167 0
-1166 -1168 0
-1166 -1169 0
-1166 -1170 0
-1167 -1168 0
-1167 -1169 0
-1167 -1170 0
-1168 -1169 0
-1168 -1170 0
-1169 -1170 0
1171 1172 1173 1174 1175 0
-1171 -1172 0
-1171 -1173 0
-1171 -1174 0
-1171 -1175 0
-1172 -1173 0
-1172 -1174 0
-1172 -1175 0
-1173 -1174 0
-1173 -1175 0
-1174 -1175 0
1176 1177 1178 1179 1180 0
-1176 -1177 0
-1176 -1178 0
-1176 -1179 0
-1176 -1180 0
-1177 -1178 0
-1177 -1179 0
-1177 -1180 0
-1178 -1179 0
-1178 -1180 0
-1179 -1180 0
1181 1182 1183 1184 1185 0
-1181 -1182 0
-1181 -1183 0
-1181 -1184 0
-1181 -1185 0
-1182 -1183 0
-1182 -1184 0
-1182 -1185 0
-1183 -1184 0
-1183 -1185 0
-1184 -1185 0
1186 1187 1188 1189 1190 0
-1186 -1187 0
-1186 -1188 0
-1186 -1189 0
-1186 -1190 0
-1187 -1188 0
-1187 -1189 0
-1187 -1190 0
-1188 -1189 0
-1188 -1190 0
-1189 -1190 0
1191 1192 1193 1194 1195 0
-1191 -1192 0
-1191 -1193 0
-1191 -1194 0
-1191 -1195 0
-1192 -1193 0
-1192 -1194 0
-1192 -1195 0
-1193 -1194 0
-1193 -1195 0
-1194 -1195 0
1196 1197 1198 1199 1200 0
-1196 -1197 0
-1196 -1198 0
-1196 -1199 0
-1196 -1200 0
-1197 -1198 0
-1197 -1199 0
-1197 -1200 0
-1198 -1199 0
-1198 -1200 0
-1199 -1200 0
1201 1202 1203 1204 1205 0
-1201 -1202 0
-1201 -1203 0
-1201 -1204 0
-1201 -1205 0
-1202 -1203 0
-1202 -1204 0
-1202 -1205 0
-1203 -1204 0
-1203 -1205 0
-1204 -1205 0
1206 1207 1208 1209 1210 0
-1206 -1207 0
-1206 -1208 0
-1206 -1209 0
-1206 -1210 0
-1207 -1208 0
-1207 -1209 0
-1207 -1210 0
-1208 -1209 0
-1208 -1210 0
-1209 -1210 0
1211 1212 1213 1214 1215 0
-1211 -1212 0
-1211 -1213 0
-1211 -1214 0
-1211 -1215 0
-1212 -1213 0
-1212 -1214 0
-1212 -1215 0
-1213 -1214 0
-1213 -1215 0
-1214 -1215 0
1216 1217 1218 1219 1220 0
-1216 -1217 0
-1216 -1218 0
-1216 -1219 0
-1216 -1220 0
-1217 -1218 0
-1217 -1219 0
-1217 -1220 0
-1218 -1219 0
-1218 -1220 0
-1219 -1220 0
1221 1222 1223 1224 1225 0
-1221 -1222 0
-1221 -1223 0
-1221 -1224 0
-1221 -1225 0
-1222 -1223 0
-1222 -1224 0
-1222 -1225 0
-1223 -1224 0
-1223 -1225 0
-1224 -1225 0
1226 1227 1228 1229 1230 0
-1226 -1227 0
-1226 -1228 0
-1226 -1229 0
-1226 -1230 0
-1227 -1228 0
-1227 -1229 0
-1227 -1230 0
-1228 -1229 0
-1228 -1230 0
-1229 -1230 0
1231 1232 1233 1234 1235 0
-1231 -1232 0
-1231 -1233 0
-1231 -1234 0
-1231 -1235 0
-1232 -1233 0
-1232 -1234 0
-1232 -1235 0
-1233 -1234 0
-1233 -1235 0
-1234 -1235 0
1236 1237 1238 1239 1240 0
-1236 -1237 0
-1236 -1238 0
-1236 -1239 0
-1236 -1240 0
-1237 -1238 0
-1237 -1239 0
-1237 -1240 0
-1238 -1239 0
-1238 -1240 0
-1239 -1240 0
1241 1242 1243 1244 1245 0
-1241 -1242 0
-1241 -1243 0
-1241 -1244 0
-1241 -1245 0
-1242 -1243 0
-1242 -1244 0
-1242 -1245 0
-1243 -1244 0
-1243 -1245 0
-1244 -1245 0
1246 1247 1248 1249 1250 0
-1246 -1247 0
-1246 -1248 0
-1246 -1249 0
-1246 -1250 0
-1247 -1248 0
-1247 -1249 0
-1247 -1250 0
-1248 -1249 0
-1248 -1250 0
-1249 -1250 0
1251 1252 1253 1254 1255 0
-1251 -1252 0
-1251 -1253 0
-1251 -1254 0
-1251 -1255 0
-1252 -1253 0
-1252 -1254 0
-1252 -1255 0
-1253 -1254 0
-1253 -1255 0
-1254 -1255 0
1256 1257 1258 1259 1260 0
-1256 -1257 0
-1256 -1258 0
-1256 -1259 0
-1256 -1260 0
-1257 -1258 0
-1257 -1259 0
-1257 -1260 0
-1258 -1259 0
-1258 -1260 0
-1259 -1260 0
1261 1262 1263 1264 1265 0
-1261 -1262 0
-1261 -1263 0
-1261 -1264 0
-1261 -1265 0
-1262 -1263 0
-1262 -1264 0
-1262 -1265 0
-1263 -1264 0
-1263 -1265 0
-1264 -1265 0
1266 1267 1268 1269 1270 0
-1266 -1267 0
-1266 -1268 0
-1266 -1269 0
-1266 -1270 0
-1267 -1268 0
-1267 -1269 0
-1267 -1270 0
-1268 -1269 0
-1268 -1270 0
-1269 -1270 0
1271 1272 1273 1274 1275 0
-1271 -1272 0
-1271 -1273 0
-1271 -1274 0
-1271 -1275 0
-1272 -1273 0
-1272 -1274 0
-1272 -1275 0
-1273 -1274 0
-1273 -1275 0
-1274 -1275 0
1276 1277 1278 1279 1280 0
-1276 -1277 0
-1276 -1278 0
-1276 -1279 0
-1276 -1280 0
-1277 -1278 0
-1277 -1279 0
-1277 -1280 0
-1278 -1279 0
-1278 -1280 0
-1279 -1280 0
1281 1282 1283 1284 1285 0
-1281 -1282 0
-1281 -1283 0
-1281 -1284 0
-1281 -1285 0
-1282 -1283 0
-1282 -1284 0
-1282 -1285 0
-1283 -1284 0
-1283 -1285 0
-1284 -1285 0
1286 1287 1288 1289 1290 0
-1286 -1287 0
-1286 -1288 0
-1286 -1289 0
-1286 -1290 0
-1287 -1288 0
-1287 -1289 0
-1287 -1290 0
-1288 -1289 0
-1288 -1290 0
-1289 -1290 0
1291 1292 1293 1294 1295 0
-1291 -1292 0
-1291 -1293 0
-1291 -1294 0
-1291 -1295 0
-1292 -1293 0
-1292 -1294 0
-1292 -1295 0
-1293 -1294 0
-1293 -1295 0
-1294 -1295 0
1296 1297 1298 1299 1300 0
-1296 -1297 0
-1296 -1298 0
-1296 -1299 0
-1296 -1300 0
-1297 -1298 0
-1297 -1299 0
-1297 -1300 0
-1298 -1299 0
-1298 -1300 0
-1299 -1300 0
1301 1302 1303 1304 1305 0
-1301 -1302 0
-1301 -1303 0
-1301 -1304 0
-1301 -1305 0
-1302 -1303 0
-1302 -1304 0
-1302 -1305 0
-1303 -1304 0
-1303 -1305 0
-1304 -1305 0
1306 1307 1308 1309 1310 0
-1306 -1307 0
-1306 -1308 0
-1306 -1309 0
-1306 -1310 0
-1307 -1308 0
-1307 -1309 0
-1307 -1310 0
-1308 -1309 0
-1308 -1310 0
-1309 -1310 0
1311 1312 1313 1314 1315 0
-1311 -1312 0
-1311 -1313 0
-1311 -1314 0
-1311 -1315 0
-1312 -1313 0
-1312 -1314 0
-1312 -1315 0
-1313 -1314 0
-1313 -1315 0
-1314 -1315 0
1316 1317 1318 1319 1320 0
-1316 -1317 0
-1316 -1318 0
-1316 -1319 0
-1316 -1320 0
-1317 -1318 0
-1317 -1319 0
-1317 -1320 0
-1318 -1319 0
-1318 -1320 0
-1319 -1320 0
1321 1322 1323 1324 1325 0
-1321 -1322 0
-1321 -1323 0
-1321 -1324 0
-1321 -1325 0
-1322 -1323 0
-1322 -1324 0
-1322 -1325 0
-1323 -1324 0
-1323 -1325 0
-1324 -1325 0
1326 1327 1328 1329 1330 0
-1326 -1327 0
-1326 -1328 0
-1326 -1329 0
-1326 -1330 0
-1327 -1328 0
-1327 -1329 0
-1327 -1330 0
-1328 -1329 0
-1328 -1330 0
-1329 -1330 0
1331 1332 1333 1334 1335 0
-1331 -1332 0
-1331 -1333 0
-1331 -1334 0
-1331 -1335 0
-1332 -1333 0
-1332 -1334 0
-1332 -1335 0
-1333 -1334 0
-1333 -1335 0
-1334 -1335 0
1336 1337 1338 1339 1340 0
-1336 -1337 0
-1336 -1338 0
-1336 -1339 0
-1336 -1340 0
-1337 -1338 0
-1337 -1339 0
-1337 -1340 0
-1338 -1339 0
-1338 -1340 0
-1339 -1340 0
1341 1342 1343 1344 1345 0
-1341 -1342 0
-1341 -1343 0
-1341 -1344 0
-1341 -1345 0
-1342 -1343 0
-1342 -1344 0
-1342 -1345 0
-1343 -1344 0
-1343 -1345 0
-1344 -1345 0
1346 1347 1348 1349 1350 0
-1346 -1347 0
-1346 -1348 0
-1346 -1349 0
-1346 -1350 0
-1347 -1348 0
-1347 -1349 0
-1347 -1350 0
-1348 -1349 0
-1348 -1350 0
-1349 -1350 0
1351 1352 1353 1354 1355 0
-1351 -1352 0
-1351 -1353 0
-1351 -1354 0
-1351 -1355 0
-1352 -1353 0
-1352 -1354 0
-1352 -1355 0
-1353 -1354 0
-1353 -1355 0
-1354 -1355 0
1356 1357 1358 1359 1360 0
-1356 -1357 0
-1356 -1358 0
-1356 -1359 0
-1356 -1360 0
-1357 -1358 0
-1357 -1359 0
-1357 -1360 0
-1358 -1359 0
-1358 -1360 0
-1359 -1360 0
1361 1362 1363 1364 1365 0
-1361 -1362 0
-1361 -1363 0
-1361 -1364 0
-1361 -1365 0
-1362 -1363 0
-1362 -1364 0
-1362 -1365 0
-1363 -1364 0
-1363 -1365 0
-1364 -1365 0
1366 1367 1368 1369 1370 0
-1366 -1367 0
-1366 -1368 0
-1366 -1369 0
-1366 -1370 0
-1367 -1368 0
-1367 -1369 0
-1367 -1370 0
-1368 -1369 0
-1368 -1370 0
-1369 -1370 0
1371 1372 1373 1374 1375 0
-1371 -1372 0
-1371 -1373 0
-1371 -1374 0
-1371 -1375 0
-1372 -1373 0
-1372 -1374 0
-1372 -1375 0
-1373 -1374 0
-1373 -1375 0
-1374 -1375 0
1376 1377 1378 1379 1380 0
-1376 -1377 0
-1376 -1378 0
-1376 -1379 0
-1376 -1380 0
-1377 -1378 0
-1377 -1379 0
-1377 -1380 0
-1378 -1379 0
-1378 -1380 0
-1379 -1380 0
1381 1382 1383 1384 1385 0
-1381 -1382 0
-1381 -1383 0
-1381 -1384 0
-1381 -1385 0
-1382 -1383 0
-1382 -1384 0
-1382 -1385 0
-1383 -1384 0
-1383 -1385 0
-1384 -1385 0
1386 1387 1388 1389 1390 0
-1386 -1387 0
-1386 -1388 0
-1386 -1389 0
-1386 -1390 0
-1387 -1388 0
-1387 -1389 0
-1387 -1390 0
-1388 -1389 0
-1388 -1390 0
-1389 -1390 0
1391 1392 1393 1394 1395 0
-1391 -1392 0
-1391 -1393 0
-1391 -1394 0
-1391 -1395 0
-1392 -1393 0
-1392 -1394 0
-1392 -1395 0
-1393 -1394 0
-1393 -1395 0
-1394 -1395 0
1396 1397 1398 1399 1400 0
-1396 -1397 0
-1396 -1398 0
-1396 -1399 0
-1396 -1400 0
-1397 -1398 0
-1397 -1399 0
-1397 -1400 0
-1398 -1399 0
-1398 -1400 0
-1399 -1400 0
1401 1402 1403 1404 1405 0
-1401 -1402 0
-1401 -1403 0
-1401 -1404 0
-1401 -1405 0
-1402 -1403 0
-1402 -1404 0
-1402 -1405 0
-1403 -1404 0
-1403 -1405 0
-1404 -1405 0
1406 1407 1408 1409 1410 0
-1406 -1407 0
-1406 -1408 0
-1406 -1409 0
-1406 -1410 0
-1407 -1408 0
-1407 -1409 0
-1407 -1410 0
-1408 -1409 0
-1408 -1410 0
-1409 -1410 0
1411 1412 1413 1414 1415 0
-1411 -1412 0
-1411 -1413 0
-1411 -1414 0
-1411 -1415 0
-1412 -1413 0
-1412 -1414 0
-1412 -1415 0
-1413 -1414 0
-1413 -1415 0
-1414 -1415 0
1416 1417 1418 1419 1420 0
-1416 -1417 0
-1416 -1418 0
-1416 -1419 0
-1416 -1420 0
-1417 -1418 0
-1417 -1419 0
-1417 -1420 0
-1418 -1419 0
-1418 -1420 0
-1419 -1420 0
1421 1422 1423 1424 1425 0
-1421 -1422 0
-1421 -1423 0
-1421 -1424 0
-1421 -1425 0
-1422 -1423 0
-1422 -1424 0
-1422 -1425 0
-1423 -1424 0
-1423 -1425 0
-1424 -1425 0
1426 1427 1428 1429 1430 0
-1426 -1427 0
-1426 -1428 0
-1426 -1429 0
-1426 -1430 0
-1427 -1428 0
-1427 -1429 0
-1427 -1430 0
-1428 -1429 0
-1428 -1430 0
-1429 -1430 0
1431 1432 1433 1434 1435 0
-1431 -1432 0
-1431 -1433 0
-1431 -1434 0
-1431 -1435 0
-1432 -1433 0
-1432 -1434 0
-1432 -1435 0
-1433 -1434 0
-1433 -1435 0
-1434 -1435 0
1436 1437 1438 1439 1440 0
-1436 -1437 0
-1436 -1438 0
-1436 -1439 0
-1436 -1440 0
-1437 -1438 0
-1437 -1439 0
-1437 -1440 0
-1438 -1439 0
-1438 -1440 0
-1439 -1440 0
1441 1442 1443 1444 1445 0
-1441 -1442 0
-1441 -1443 0
-1441 -1444 0
-1441 -1445 0
-1442 -1443 0
-1442 -1444 0
-1442 -1445 0
-1443 -1444 0
-1443 -1445 0
-1444 -1445 0
1446 1447 1448 1449 1450 0
-1446 -1447 0
-1446 -1448 0
-1446 -1449 0
-1446 -1450 0
-1447 -1448 0
-1447 -1449 0
-1447 -1450 0
-1448 -1449 0
-1448 -1450 0
-1449 -1450 0
1451 1452 1453 1454 1455 0
-1451 -1452 0
-1451 -1453 0
-1451 -1454 0
-1451 -1455 0
-1452 -1453 0
-1452 -1454 0
-1452 -1455 0
-1453 -1454 0
-1453 -1455 0
-1454 -1455 0
1456 1457 1458 1459 1460 0
-1456 -1457 0
-1456 -1458 0
-1456 -1459 0
-1456 -1460 0
-1457 -1458 0
-1457 -1459 0
-1457 -1460 0
-1458 -1459 0
-1458 -1460 0
-1459 -1460 0
1461 1462 1463 1464 1465 0
-1461 -1462 0
-1461 -1463 0
-1461 -1464 0
-1461 -1465 0
-1462 -1463 0
-1462 -1464 0
-1462 -1465 0
-1463 -1464 0
-1463 -1465 0
-1464 -1465 0
1466 1467 1468 1469 1470 0
-1466 -1467 0
-1466 -1468 0
-1466 -1469 0
-1466 -1470 0
-1467 -1468 0
-1467 -1469 0
-1467 -1470 0
-1468 -1469 0
-1468 -1470 0
-1469 -1470 0
1471 1472 1473 1474 1475 0
-1471 -1472 0
-1471 -1473 0
-1471 -1474 0
-1471 -1475 0
-1472 -1473 0
-1472 -1474 0
-1472 -1475 0
-1473 -1474 0
-1473 -1475 0
-1474 -1475 0
1476 1477 1478 1479 1480 0
-1476 -1477 0
-1476 -1478 0
-1476 -1479 0
-1476 -1480 0
-1477 -1478 0
-1477 -1479 0
-1477 -1480 0
-1478 -1479 0
-1478 -1480 0
-1479 -1480 0
1481 1482 1483 1484 1485 0
-1481 -1482 0
-1481 -1483 0
-1481 -1484 0
-1481 -1485 0
-1482 -1483 0
-1482 -1484 0
-1482 -1485 0
-1483 -1484 0
-1483 -1485 0
-1484 -1485 0
1486 1487 1488 1489 1490 0
-1486 -1487 0
-1486 -1488 0
-1486 -1489 0
-1486 -1490 0
-1487 -1488 0
-1487 -1489 0
-1487 -1490 0
-1488 -1489 0
-1488 -1490 0
-1489 -1490 0
1491 1492 1493 1494 1495 0
-1491 -1492 0
-1491 -1493 0
-1491 -1494 0
-1491 -1495 0
-1492 -1493 0
-1492 -1494 0
-1492 -1495 0
-1493 -1494 0
-1493 -1495 0
-1494 -1495 0
1496 1497 1498 1499 1500 0
-1496 -1497 0
-1496 -1498 0
-1496 -1499 0
-1496 -1500 0
-1497 -1498 0
-1497 -1499 0
-1497 -1500 0
-1498 -1499 0
-1498 -1500 0
-1499 -1500 0
1501 1502 1503 1504 1505 0
-1501 -1502 0
-1501 -1503 0
-1501 -1504 0
-1501 -1505 0
-1502 -1503 0
-1502 -1504 0
-1502 -1505 0
-1503 -1504 0
-1503 -1505 0
-1504 -1505 0
1506 1507 1508 1509 1510 0
-1506 -1507 0
-1506 -1508 0
-1506 -1509 0
-1506 -1510 0
-1507 -1508 0
-1507 -1509 0
-1507 -1510 0
-1508 -1509 0
-1508 -1510 0
-1509 -1510 0
1511 1512 1513 1514 1515 0
-1511 -1512 0
-1511 -1513 0
-1511 -1514 0
-1511 -1515 0
-1512 -1513 0
-1512 -1514 0
-1512 -1515 0
-1513 -1514 0
-1513 -1515 0
-1514 -1515 0
1516 1517 1518 1519 1520 0
-1516 -1517 0
-1516 -1518 0
-1516 -1519 0
-1516 -1520 0
-1517 -1518 0
-1517 -1519 0
-1517 -1520 0
-1518 -1519 0
-1518 -1520 0
-1519 -1520 0
1521 1522 1523 1524 1525 0
-1521 -1522 0
-1521 -1523 0
-1521 -1524 0
-1521 -1525 0
-1522 -1523 0
-1522 -1524 0
-1522 -1525 0
-1523 -1524 0
-1523 -1525 0
-1524 -1525 0
1526 1527 1528 1529 1530 0
-1526 -1527 0
-1526 -1528 0
-1526 -1529 0
-1526 -1530 0
-1527 -1528 0
-1527 -1529 0
-1527 -1530 0
-1528 -1529 0
-1528 -1530 0
-1529 -1530 0
1531 1532 1533 1534 1535 0
-1531 -1532 0
-1531 -1533 0
-1531 -1534 0
-1531 -1535 0
-1532 -1533 0
-1532 -1534 0
-1532 -1535 0
-1533 -1534 0
-1533 -1535 0
-1534 -1535 0
1536 1537 1538 1539 1540 0
-1536 -1537 0
-1536 -1538 0
-1536 -1539 0
-1536 -1540 0
-1537 -1538 0
-1537 -1539 0
-1537 -1540 0
-1538 -1539 0
-1538 -1540 0
-1539 -1540 0
1541 1542 1543 1544 1545 0
-1541 -1542 0
-1541 -1543 0
-1541 -1544 0
-1541 -1545 0
-1542 -1543 0
-1542 -1544 0
-1542 -1545 0
-1543 -1544 0
-1543 -1545 0
-1544 -1545 0
1546 1547 1548 1549 1550 0
-1546 -1547 0
-1546 -1548 0
-1546 -1549 0
-1546 -1550 0
-1547 -1548 0
-1547 -1549 0
-1547 -1550 0
-1548 -1549 0
-1548 -1550 0
-1549 -1550 0
1551 1552 1553 1554 1555 0
-1551 -1552 0
-1551 -1553 0
-1551 -1554 0
-1551 -1555 0
-1552 -1553 0
-1552 -1554 0
-1552 -1555 0
-1553 -1554 0
-1553 -1555 0
-1554 -1555 0
1556 1557 1558 1559 1560 0
-1556 -1557 0
-1556 -1558 0
-1556 -1559 0
-1556 -1560 0
-1557 -1558 0
-1557 -1559 0
-1557 -1560 0
-1558 -1559 0
-1558 -1560 0
-1559 -1560 0
1561 1562 1563 1564 1565 0
-1561 -1562 0
-1561 -1563 0
-1561 -1564 0
-1561 -1565 0
-1562 -1563 0
-1562 -1564 0
-1562 -1565 0
-1563 -1564 0
-1563 -1565 0
-1564 -1565 0
1566 1567 1568 1569 1570 0
-1566 -1567 0
-1566 -1568 0
-1566 -1569 0
-1566 -1570 0
-1567 -1568 0
-1567 -1569 0
-1567 -1570 0
-1568 -1569 0
-1568 -1570 0
-1569 -1570 0
1571 1572 1573 1574 1575 0
-1571 -1572 0
-1571 -1573 0
-1571 -1574 0
-1571 -1575 0
-1572 -1573 0
-1572 -1574 0
-1572 -1575 0
-1573 -1574 0
-1573 -1575 0
-1574 -1575 0
1576 1577 1578 1579 1580 0
-1576 -1577 0
-1576 -1578 0
-1576 -1579 0
-1576 -1580 0
-1577 -1578 0
-1577 -1579 0
-1577 -1580 0
-1578 -1579 0
-1578 -1580 0
-1579 -1580 0
1581 1582 1583 1584 1585 0
-1581 -1582 0
-1581 -1583 0
-1581 -1584 0
-1581 -1585 0
-1582 -1583 0
-1582 -1584 0
-1582 -1585 0
-1583 -1584 0
-1583 -1585 0
-1584 -1585 0
1586 1587 1588 1589 1590 0
-1586 -1587 0
-1586 -1588 0
-1586 -1589 0
-1586 -1590 0
-1587 -1588 0
-1587 -1589 0
-1587 -1590 0
-1588 -1589 0
-1588 -1590 0
-1589 -1590 0
1591 1592 1593 1594 1595 0
-1591 -1592 0
-1591 -1593 0
-1591 -1594 0
-1591 -1595 0
-1592 -1593 0
-1592 -1594 0
-1592 -1595 0
-1593 -1594 0
-1593 -1595 0
-1594 -1595 0
1596 1597 1598 1599 1600 0
-1596 -1597 0
-1596 -1598 0
-1596 -1599 0
-1596 -1600 0
-1597 -1598 0
-1597 -1599 0
-1597 -1600 0
-1598 -1599 0
-1598 -1600 0
-1599 -1600 0
1601 1602 1603 1604 1605 0
-1601 -1602 0
-1601 -1603 0
-1601 -1604 0
-1601 -1605 0
-1602 -1603 0
-1602 -1604 0
-1602 -1605 0
-1603 -1604 0
-1603 -1605 0
-1604 -1605 0
1606 1607 1608 1609 1610 0
-1606 -1607 0
-1606 -1608 0
-1606 -1609 0
-1606 -1610 0
-1607 -1608 0
-1607 -1609 0
-1607 -1610 0
-1608 -1609 0
-1608 -1610 0
-1609 -1610 0
1611 1612 1613 1614 1615 0
-1611 -1612 0
-1611 -1613 0
-1611 -1614 0
-1611 -1615 0
-1612 -1613 0
-1612 -1614 0
-1612 -1615 0
-1613 -1614 0
-1613 -1615 0
-1614 -1615 0
1616 1617 1618 1619 1620 0
-1616 -1617 0
-1616 -1618 0
-1616 -1619 0
-1616 -1620 0
-1617 -1618 0
-1617 -1619 0
-1617 -1620 0
-1618 -1619 0
-1618 -1620 0
-1619 -1620 0
1621 1622 1623 1624 1625 0
-1621 -1622 0
-1621 -1623 0
-1621 -1624 0
-1621 -1625 0
-1622 -1623 0
-1622 -1624 0
-1622 -1625 0
-1623 -1624 0
-1623 -1625 0
-1624 -1625 0
1626 1627 1628 1629 1630 0
-1626 -1627 0
-1626 -1628 0
-1626 -1629 0
-1626 -1630 0
-1627 -1628 0
-1627 -1629 0
-1627 -1630 0
-1628 -1629 0
-1628 -1630 0
-1629 -1630 0
1631 1632 1633 1634 1635 0
-1631 -1632 0
-1631 -1633 0
-1631 -1634 0
-1631 -1635 0
-1632 -1633 0
-1632 -1634 0
-1632 -1635 0
-1633 -1634 0
-1633 -1635 0
-1634 -1635 0
1636 1637 1638 1639 1640 0
-1636 -1637 0
-1636 -1638 0
-1636 -1639 0
-1636 -1640 0
-1637 -1638 0
-1637 -1639 0
-1637 -1640 0
-1638 -1639 0
-1638 -1640 0
-1639 -1640 0
1641 1642 1643 1644 1645 0
-1641 -1642 0
-1641 -1643 0
-1641 -1644 0
-1641 -1645 0
-1642 -1643 0
-1642 -1644 0
-1642 -1645 0
-1643 -1644 0
-1643 -1645 0
-1644 -1645 0
1646 1647 1648 1649 1650 0
-1646 -1647 0
-1646 -1648 0
-1646 -1649 0
-1646 -1650 0
-1647 -1648 0
-1647 -1649 0
-1647 -1650 0
-1648 -1649 0
-1648 -1650 0
-1649 -1650 0
1651 1652 1653 1654 1655 0
-1651 -1652 0
-1651 -1653 0
-1651 -1654 0
-1651 -1655 0
-1652 -1653 0
-1652 -1654 0
-1652 -1655 0
-1653 -1654 0
-1653 -1655 0
-1654 -1655 0
1656 1657 1658 1659 1660 0
-1656 -1657 0
-1656 -1658 0
-1656 -1659 0
-1656 -1660 0
-1657 -1658 0
-1657 -1659 0
-1657 -1660 0
-1658 -1659 0
-1658 -1660 0
-1659 -1660 0
1661 1662 1663 1664 1665 0
-1661 -1662 0
-1661 -1663 0
-1661 -1664 0
-1661 -1665 0
-1662 -1663 0
-1662 -1664 0
-1662 -1665 0
-1663 -1664 0
-1663 -1665 0
-1664 -1665 0
1666 1667 1668 1669 1670 0
-1666 -1667 0
-1666 -1668 0
-1666 -1669 0
-1666 -1670 0
-1667 -1668 0
-1667 -1669 0
-1667 -1670 0
-1668 -1669 0
-1668 -1670 0
-1669 -1670 0
1671 1672 1673 1674 1675 0
-1671 -1672 0
-1671 -1673 0
-1671 -1674 0
-1671 -1675 0
-1672 -1673 0
-1672 -1674 0
-1672 -1675 0
-1673 -1674 0
-1673 -1675 0
-1674 -1675 0
1676 1677 1678 1679 1680 0
-1676 -1677 0
-1676 -1678 0
-1676 -1679 0
-1676 -1680 0
-1677 -1678 0
-1677 -1679 0
-1677 -1680 0
-1678 -1679 0
-1678 -1680 0
-1679 -1680 0
1681 1682 1683 1684 1685 0
-1681 -1682 0
-1681 -1683 0
-1681 -1684 0
-1681 -1685 0
-1682 -1683 0
-1682 -1684 0
-1682 -1685 0
-1683 -1684 0
-1683 -1685 0
-1684 -1685 0
1686 1687 1688 1689 1690 0
-1686 -1687 0
-1686 -1688 0
-1686 -1689 0
-1686 -1690 0
-1687 -1688 0
-1687 -1689 0
-1687 -1690 0
-1688 -1689 0
-1688 -1690 0
-1689 -1690 0
1691 1692 1693 1694 1695 0
-1691 -1692 0
-1691 -1693 0
-1691 -1694 0
-1691 -1695 0
-1692 -1693 0
-1692 -1694 0
-1692 -1695 0
-1693 -1694 0
-1693 -1695 0
-1694 -1695 0
1696 1697 1698 1699 1700 0
-1696 -1697 0
-1696 -1698 0
-1696 -1699 0
-1696 -1700 0
-1697 -1698 0
-1697 -1699 0
-1697 -1700 0
-1698 -1699 0
-1698 -1700 0
-1699 -1700 0
1701 1702 1703 1704 1705 0
-1701 -1702 0
-1701 -1703 0
-1701 -1704 0
-1701 -1705 0
-1702 -1703 0
-1702 -1704 0
-1702 -1705 0
-1703 -1704 0
-1703 -1705 0
-1704 -1705 0
1706 1707 1708 1709 1710 0
-1706 -1707 0
-1706 -1708 0
-1706 -1709 0
-1706 -1710 0
-1707 -1708 0
-1707 -1709 0
-1707 -1710 0
-1708 -1709 0
-1708 -1710 0
-1709 -1710 0
1711 1712 1713 1714 1715 0
-1711 -1712 0
-1711 -1713 0
-1711 -1714 0
-1711 -1715 0
-1712 -1713 0
-1712 -1714 0
-1712 -1715 0
-1713 -1714 0
-1713 -1715 0
-1714 -1715 0
1716 1717 1718 1719 1720 0
-1716 -1717 0
-1716 -1718 0
-1716 -1719 0
-1716 -1720 0
-1717 -1718 0
-1717 -1719 0
-1717 -1720 0
-1718 -1719 0
-1718 -1720 0
-1719 -1720 0
1721 1722 1723 1724 1725 0
-1721 -1722 0
-1721 -1723 0
-1721 -1724 0
-1721 -1725 0
-1722 -1723 0
-1722 -1724 0
-1722 -1725 0
-1723 -1724 0
-1723 -1725 0
-1724 -1725 0
1726 1727 1728 1729 1730 0
-1726 -1727 0
-1726 -1728 0
-1726 -1729 0
-1726 -1730 0
-1727 -1728 0
-1727 -1729 0
-1727 -1730 0
-1728 -1729 0
-1728 -1730 0
-1729 -1730 0
1731 1732 1733 1734 1735 0
-1731 -1732 0
-1731 -1733 0
-1731 -1734 0
-1731 -1735 0
-1732 -1733 0
-1732 -1734 0
-1732 -1735 0
-1733 -1734 0
-1733 -1735 0
-1734 -1735 0
1736 1737 1738 1739 1740 0
-1736 -1737 0
-1736 -1738 0
-1736 -1739 0
-1736 -1740 0
-1737 -1738 0
-1737 -1739 0
-1737 -1740 0
-1738 -1739 0
-1738 -1740 0
-1739 -1740 0
1741 1742 1743 1744 1745 0
-1741 -1742 0
-1741 -1743 0
-1741 -1744 0
-1741 -1745 0
-1742 -1743 0
-1742 -1744 0
-1742 -1745 0
-1743 -1744 0
-1743 -1745 0
-1744 -1745 0
1746 1747 1748 1749 1750 0
-1746 -1747 0
-1746 -1748 0
-1746 -1749 0
-1746 -1750 0
-1747 -1748 0
-1747 -1749 0
-1747 -1750 0
-1748 -1749 0
-1748 -1750 0
-1749 -1750 0
1751 1752 1753 1754 1755 0
-1751 -1752 0
-1751 -1753 0
-1751 -1754 0
-1751 -1755 0
-1752 -1753 0
-1752 -1754 0
-1752 -1755 0
-1753 -1754 0
-1753 -1755 0
-1754 -1755 0
1756 1757 1758 1759 1760 0
-1756 -1757 0
-1756 -1758 0
-1756 -1759 0
-1756 -1760 0
-1757 -1758 0
-1757 -1759 0
-1757 -1760 0
-1758 -1759 0
-1758 -1760 0
-1759 -1760 0
1761 1762 1763 1764 1765 0
-1761 -1762 0
-1761 -1763 0
-1761 -1764 0
-1761 -1765 0
-1762 -1763 0
-1762 -1764 0
-1762 -1765 0
-1763 -1764 0
-1763 -1765 0
-1764 -1765 0
1766 1767 1768 1769 1770 0
-1766 -1767 0
-1766 -1768 0
-1766 -1769 0
-1766 -1770 0
-1767 -1768 0
-1767 -1769 0
-1767 -1770 0
-1768 -1769 0
-1768 -1770 0
-1769 -1770 0
1771 1772 1773 1774 1775 0
-1771 -1772 0
-1771 -1773 0
-1771 -1774 0
-1771 -1775 0
-1772 -1773 0
-1772 -1774 0
-1772 -1775 0
-1773 -1774 0
-1773 -1775 0
-1774 -1775 0
1776 1777 1778 1779 1780 0
-1776 -1777 0
-1776 -1778 0
-1776 -1779 0
-1776 -1780 0
-1777 -1778 0
-1777 -1779 0
-1777 -1780 0
-1778 -1779 0
-1778 -1780 0
-1779 -1780 0
1781 1782 1783 1784 1785 0
-1781 -1782 0
-1781 -1783 0
-1781 -1784 0
-1781 -1785 0
-1782 -1783 0
-1782 -1784 0
-1782 -1785 0
-1783 -1784 0
-1783 -1785 0
-1784 -1785 0
1786 1787 1788 1789 1790 0
-1786 -1787 0
-1786 -1788 0
-1786 -1789 0
-1786 -1790 0
-1787 -1788 0
-1787 -1789 0
-1787 -1790 0
-1788 -1789 0
-1788 -1790 0
-1789 -1790 0
1791 1792 1793 1794 1795 0
-1791 -1792 0
-1791 -1793 0
-1791 -1794 0
-1791 -1795 0
-1792 -1793 0
-1792 -1794 0
-1792 -1795 0
-1793 -1794 0
-1793 -1795 0
-1794 -1795 0
1796 1797 1798 1799 1800 0
-1796 -1797 0
-1796 -1798 0
-1796 -1799 0
-1796 -1800 0
-1797 -1798 0
-1797 -1799 0
-1797 -1800 0
-1798 -1799 0
-1798 -1800 0
-1799 -1800 0
1801 1802 1803 1804 1805 0
-1801 -1802 0
-1801 -1803 0
-1801 -1804 0
-1801 -1805 0
-1802 -1803 0
-1802 -1804 0
-1802 -1805 0
-1803 -1804 0
-1803 -1805 0
-1804 -1805 0
1806 1807 1808 1809 1810 0
-1806 -1807 0
-1806 -1808 0
-1806 -1809 0
-1806 -1810 0
-1807 -1808 0
-1807 -1809 0
-1807 -1810 0
-1808 -1809 0
-1808 -1810 0
-1809 -1810 0
1811 1812 1813 1814 1815 0
-1811 -1812 0
-1811 -1813 0
-1811 -1814 0
-1811 -1815 0
-1812 -1813 0
-1812 -1814 0
-1812 -1815 0
-1813 -1814 0
-1813 -1815 0
-1814 -1815 0
1816 1817 1818 1819 1820 0
-1816 -1817 0
-1816 -1818 0
-1816 -1819 0
-1816 -1820 0
-1817 -1818 0
-1817 -1819 0
-1817 -1820 0
-1818 -1819 0
-1818 -1820 0
-1819 -1820 0
1821 1822 1823 1824 1825 0
-1821 -1822 0
-1821 -1823 0
-1821 -1824 0
-1821 -1825 0
-1822 -1823 0
-1822 -1824 0
-1822 -1825 0
-1823 -1824 0
-1823 -1825 0
-1824 -1825 0
1826 1827 1828 1829 1830 0
-1826 -1827 0
-1826 -1828 0
-1826 -1829 0
-1826 -1830 0
-1827 -1828 0
-1827 -1829 0
-1827 -1830 0
-1828 -1829 0
-1828 -1830 0
-1829 -1830 0
1831 1832 1833 1834 1835 0
-1831 -1832 0
-1831 -1833 0
-1831 -1834 0
-1831 -1835 0
-1832 -1833 0
-1832 -1834 0
-1832 -1835 0
-1833 -1834 0
-1833 -1835 0
-1834 -1835 0
1836 1837 1838 1839 1840 0
-1836 -1837 0
-1836 -1838 0
-1836 -1839 0
-1836 -1840 0
-1837 -1838 0
-1837 -1839 0
-1837 -1840 0
-1838 -1839 0
-1838 -1840 0
-1839 -1840 0
1841 1842 1843 1844 1845 0
-1841 -1842 0
-1841 -1843 0
-1841 -1844 0
-1841 -1845 0
-1842 -1843 0
-1842 -1844 0
-1842 -1845 0
-1843 -1844 0
-1843 -1845 0
-1844 -1845 0
1846 1847 1848 1849 1850 0
-1846 -1847 0
-1846 -1848 0
-1846 -1849 0
-1846 -1850 0
-1847 -1848 0
-1847 -1849 0
-1847 -1850 0
-1848 -1849 0
-1848 -1850 0
-1849 -1850 0
1851 1852 1853 1854 1855 0
-1851 -1852 0
-1851 -1853 0
-1851 -1854 0
-1851 -1855 0
-1852 -1853 0
-1852 -1854 0
-1852 -1855 0
-1853 -1854 0
-1853 -1855 0
-1854 -1855 0
1856 1857 1858 1859 1860 0
-1856 -1857 0
-1856 -1858 0
-1856 -1859 0
-1856 -1860 0
-1857 -1858 0
-1857 -1859 0
-1857 -1860 0
-1858 -1859 0
-1858 -1860 0
-1859 -1860 0
1861 1862 1863 1864 1865 0
-1861 -1862 0
-1861 -1863 0
-1861 -1864 0
-1861 -1865 0
-1862 -1863 0
-1862 -1864 0
-1862 -1865 0
-1863 -1864 0
-1863 -1865 0
-1864 -1865 0
1866 1867 1868 1869 1870 0
-1866 -1867 0
-1866 -1868 0
-1866 -1869 0
-1866 -1870 0
-1867 -1868 0
-1867 -1869 0
-1867 -1870 0
-1868 -1869 0
-1868 -1870 0
-1869 -1870 0
1871 1872 1873 1874 1875 0
-1871 -1872 0
-1871 -1873 0
-1871 -1874 0
-1871 -1875 0
-1872 -1873 0
-1872 -1874 0
-1872 -1875 0
-1873 -1874 0
-1873 -1875 0
-1874 -1875 0
1876 1877 1878 1879 1880 0
-1876 -1877 0
-1876 -1878 0
-1876 -1879 0
-1876 -1880 0
-1877 -1878 0
-1877 -1879 0
-1877 -1880 0
-1878 -1879 0
-1878 -1880 0
-1879 -1880 0
1881 1882 1883 1884 1885 0
-1881 -1882 0
-1881 -1883 0
-1881 -1884 0
-1881 -1885 0
-1882 -1883 0
-1882 -1884 0
-1882 -1885 0
-1883 -1884 0
-1883 -1885 0
-1884 -1885 0
1886 1887 1888 1889 1890 0
-1886 -1887 0
-1886 -1888 0
-1886 -1889 0
-1886 -1890 0
-1887 -1888 0
-1887 -1889 0
-1887 -1890 0
-1888 -1889 0
-1888 -1890 0
-1889 -1890 0
1891 1892 1893 1894 1895 0
-1891 -1892 0
-1891 -1893 0
-1891 -1894 0
-1891 -1895 0
-1892 -1893 0
-1892 -1894 0
-1892 -1895 0
-1893 -1894 0
-1893 -1895 0
-1894 -1895 0
1896 1897 1898 1899 1900 0
-1896 -1897 0
-1896 -1898 0
-1896 -1899 0
-1896 -1900 0
-1897 -1898 0
-1897 -1899 0
-1897 -1900 0
-1898 -1899 0
-1898 -1900 0
-1899 -1900 0
1901 1902 1903 1904 1905 0
-1901 -1902 0
-1901 -1903 0
-1901 -1904 0
-1901 -1905 0
-1902 -1903 0
-1902 -1904 0
-1902 -1905 0
-1903 -1904 0
-1903 -1905 0
-1904 -1905 0
1906 1907 1908 1909 1910 0
-1906 -1907 0
-1906 -1908 0
-1906 -1909 0
-1906 -1910 0
-1907 -1908 0
-1907 -1909 0
-1907 -1910 0
-1908 -1909 0
-1908 -1910 0
-1909 -1910 0
1911 1912 1913 1914 1915 0
-1911 -1912 0
-1911 -1913 0
-1911 -1914 0
-1911 -1915 0
-1912 -1913 0
-1912 -1914 0
-1912 -1915 0
-1913 -1914 0
-1913 -1915 0
-1914 -1915 0
1916 1917 1918 1919 1920 0
-1916 -1917 0
-1916 -1918 0
-1916 -1919 0
-1916 -1920 0
-1917 -1918 0
-1917 -1919 0
-1917 -1920 0
-1918 -1919 0
-1918 -1920 0
-1919 -1920 0
1921 1922 1923 1924 1925 0
-1921 -1922 0
-1921 -1923 0
-1921 -1924 0
-1921 -1925 0
-1922 -1923 0
-1922 -1924 0
-1922 -1925 0
-1923 -1924 0
-1923 -1925 0
-1924 -1925 0
1926 1927 1928 1929 1930 0
-1926 -1927 0
-1926 -1928 0
-1926 -1929 0
-1926 -1930 0
-1927 -1928 0
-1927 -1929 0
-1927 -1930 0
-1928 -1929 0
-1928 -1930 0
-1929 -1930 0
1931 1932 1933 1934 1935 0
-1931 -1932 0
-1931 -1933 0
-1931 -1934 0
-1931 -1935 0
-1932 -1933 0
-1932 -1934 0
-1932 -1935 0
-1933 -1934 0
-1933 -1935 0
-1934 -1935 0
1936 1937 1938 1939 1940 0
-1936 -1937 0
-1936 -1938 0
-1936 -1939 0
-1936 -1940 0
-1937 -1938 0
-1937 -1939 0
-1937 -1940 0
-1938 -1939 0
-1938 -1940 0
-1939 -1940 0
1941 1942 1943 1944 1945 0
-1941 -1942 0
-1941 -1943 0
-1941 -1944 0
-1941 -1945 0
-1942 -1943 0
-1942 -1944 0
-1942 -1945 0
-1943 -1944 0
-1943 -1945 0
-1944 -1945 0
1946 1947 1948 1949 1950 0
-1946 -1947 0
-1946 -1948 0
-1946 -1949 0
-1946 -1950 0
-1947 -1948 0
-1947 -1949 0
-1947 -1950 0
-1948 -1949 0
-1948 -1950 0
-1949 -1950 0
1951 1952 1953 1954 1955 0
-1951 -1952 0
-1951 -1953 0
-1951 -1954 0
-1951 -1955 0
-1952 -1953 0
-1952 -1954 0
-1952 -1955 0
-1953 -1954 0
-1953 -1955 0
-1954 -1955 0
1956 1957 1958 1959 1960 0
-1956 -1957 0
-1956 -1958 0
-1956 -1959 0
-1956 -1960 0
-1957 -1958 0
-1957 -1959 0
-1957 -1960 0
-1958 -1959 0
-1958 -1960 0
-1959 -1960 0
1961 1962 1963 1964 1965 0
-1961 -1962 0
-1961 -1963 0
-1961 -1964 0
-1961 -1965 0
-1962 -1963 0
-1962 -1964 0
-1962 -1965 0
-1963 -1964 0
-1963 -1965 0
-1964 -1965 0
1966 1967 1968 1969 1970 0
-1966 -1967 0
-1966 -1968 0
-1966 -1969 0
-1966 -1970 0
-1967 -1968 0
-1967 -1969 0
-1967 -1970 0
-1968 -1969 0
-1968 -1970 0
-1969 -1970 0
1971 1972 1973 1974 1975 0
-1971 -1972 0
-1971 -1973 0
-1971 -1974 0
-1971 -1975 0
-1972 -1973 0
-1972 -1974 0
-1972 -1975 0
-1973 -1974 0
-1973 -1975 0
-1974 -1975 0
1976 1977 1978 1979 1980 0
-1976 -1977 0
-1976 -1978 0
-1976 -1979 0
-1976 -1980 0
-1977 -1978 0
-1977 -1979 0
-1977 -1980 0
-1978 -1979 0
-1978 -1980 0
-1979 -1980 0
1981 1982 1983 1984 1985 0
-1981 -1982 0
-1981 -1983 0
-1981 -1984 0
-1981 -1985 0
-1982 -1983 0
-1982 -1984 0
-1982 -1985 0
-1983 -1984 0
-1983 -1985 0
-1984 -1985 0
1986 1987 1988 1989 1990 0
-1986 -1987 0
-1986 -1988 0
-1986 -1989 0
-1986 -1990 0
-1987 -1988 0
-1987 -1989 0
-1987 -1990 0
-1988 -1989 0
-1988 -1990 0
-1989 -1990 0
1991 1992 1993 1994 1995 0
-1991 -1992 0
-1991 -1993 0
-1991 -1994 0
-1991 -1995 0
-1992 -1993 0
-1992 -1994 0
-1992 -1995 0
-1993 -1994 0
-1993 -1995 0
-1994 -1995 0
1996 1997 1998 1999 2000 0
-1996 -1997 0
-1996 -1998 0
-1996 -1999 0
-1996 -2000 0
-1997 -1998 0
-1997 -1999 0
-1997 -2000 0
-1998 -1999 0
-1998 -2000 0
-1999 -2000 0
2001 2002 2003 2004 2005 0
-2001 -2002 0
-2001 -2003 0
-2001 -2004 0
-2001 -2005 0
-2002 -2003 0
-2002 -2004 0
-2002 -2005 0
-2003 -2004 0
-2003 -2005 0
-2004 -2005 0
2006 2007 2008 2009 2010 0
-2006 -2007 0
-2006 -2008 0
-2006 -2009 0
-2006 -2010 0
-2007 -2008 0
-2007 -2009 0
-2007 -2010 0
-2008 -2009 0
-2008 -2010 0
-2009 -2010 0
2011 2012 2013 2014 2015 0
-2011 -2012 0
-2011 -2013 0
-2011 -2014 0
-2011 -2015 0
-2012 -2013 0
-2012 -2014 0
-2012 -2015 0
-2013 -2014 0
-2013 -2015 0
-2014 -2015 0
2016 2017 2018 2019 2020 0
-2016 -2017 0
-2016 -2018 0
-2016 -2019 0
-2016 -2020 0
-2017 -2018 0
-2017 -2019 0
-2017 -2020 0
-2018 -2019 0
-2018 -2020 0
-2019 -2020 0
2021 2022 2023 2024 2025 0
-2021 -2022 0
-2021 -2023 0
-2021 -2024 0
-2021 -2025 0
-2022 -2023 0
-2022 -2024 0
-2022 -2025 0
-2023 -2024 0
-2023 -2025 0
-2024 -2025 0
2026 2027 2028 2029 2030 0
-2026 -2027 0
-2026 -2028 0
-2026 -2029 0
-2026 -2030 0
-2027 -2028 0
-2027 -2029 0
-2027 -2030 0
-2028 -2029 0
-2028 -2030 0
-2029 -2030 0
2031 2032 2033 2034 2035 0
-2031 -2032 0
-2031 -2033 0
-2031 -2034 0
-2031 -2035 0
-2032 -2033 0
-2032 -2034 0
-2032 -2035 0
-2033 -2034 0
-2033 -2035 0
-2034 -2035 0
2036 2037 2038 2039 2040 0
-2036 -2037 0
-2036 -2038 0
-2036 -2039 0
-2036 -2040 0
-2037 -2038 0
-2037 -2039 0
-2037 -2040 0
-2038 -2039 0
-2038 -2040 0
-2039 -2040 0
2041 2042 2043 2044 2045 0
-2041 -2042 0
-2041 -2043 0
-2041 -2044 0
-2041 -2045 0
-2042 -2043 0
-2042 -2044 0
-2042 -2045 0
-2043 -2044 0
-2043 -2045 0
-2044 -2045 0
2046 2047 2048 2049 2050 0
-2046 -2047 0
-2046 -2048 0
-2046 -2049 0
-2046 -2050 0
-2047 -2048 0
-2047 -2049 0
-2047 -2050 0
-2048 -2049 0
-2048 -2050 0
-2049 -2050 0
2051 2052 2053 2054 2055 0
-2051 -2052 0
-2051 -2053 0
-2051 -2054 0
-2051 -2055 0
-2052 -2053 0
-2052 -2054 0
-2052 -2055 0
-2053 -2054 0
-2053 -2055 0
-2054 -2055 0
2056 2057 2058 2059 2060 0
-2056 -2057 0
-2056 -2058 0
-2056 -2059 0
-2056 -2060 0
-2057 -2058 0
-2057 -2059 0
-2057 -2060 0
-2058 -2059 0
-2058 -2060 0
-2059 -2060 0
2061 2062 2063 2064 2065 0
-2061 -2062 0
-2061 -2063 0
-2061 -2064 0
-2061 -2065 0
-2062 -2063 0
-2062 -2064 0
-2062 -2065 0
-2063 -2064 0
-2063 -2065 0
-2064 -2065 0
2066 2067 2068 2069 2070 0
-2066 -2067 0
-2066 -2068 0
-2066 -2069 0
-2066 -2070 0
-2067 -2068 0
-2067 -2069 0
-2067 -2070 0
-2068 -2069 0
-2068 -2070 0
-2069 -2070 0
2071 2072 2073 2074 2075 0
-2071 -2072 0
-2071 -2073 0
-2071 -2074 0
-2071 -2075 0
-2072 -2073 0
-2072 -2074 0
-2072 -2075 0
-2073 -2074 0
-2073 -2075 0
-2074 -2075 0
2076 2077 2078 2079 2080 0
-2076 -2077 0
-2076 -2078 0
-2076 -2079 0
-2076 -2080 0
-2077 -2078 0
-2077 -2079 0
-2077 -2080 0
-2078 -2079 0
-2078 -2080 0
-2079 -2080 0
2081 2082 2083 2084 2085 0
-2081 -2082 0
-2081 -2083 0
-2081 -2084 0
-2081 -2085 0
-2082 -2083 0
-2082 -2084 0
-2082 -2085 0
-2083 -2084 0
-2083 -2085 0
-2084 -2085 0
2086 2087 2088 2089 2090 0
-2086 -2087 0
-2086 -2088 0
-2086 -2089 0
-2086 -2090 0
-2087 -2088 0
-2087 -2089 0
-2087 -2090 0
-2088 -2089 0
-2088 -2090 0
-2089 -2090 0
2091 2092 2093 2094 2095 0
-2091 -2092 0
-2091 -2093 0
-2091 -2094 0
-2091 -2095 0
-2092 -2093 0
-2092 -2094 0
-2092 -2095 0
-2093 -2094 0
-2093 -2095 0
-2094 -2095 0
2096 2097 2098 2099 2100 0
-2096 -2097 0
-2096 -2098 0
-2096 -2099 0
-2096 -2100 0
-2097 -2098 0
-2097 -2099 0
-2097 -2100 0
-2098 -2099 0
-2098 -2100 0
-2099 -2100 0
2101 2102 2103 2104 2105 0
-2101 -2102 0
-2101 -2103 0
-2101 -2104 0
-2101 -2105 0
-2102 -2103 0
-2102 -2104 0
-2102 -2105 0
-2103 -2104 0
-2103 -2105 0
-2104 -2105 0
2106 2107 2108 2109 2110 0
-2106 -2107 0
-2106 -2108 0
-2106 -2109 0
-2106 -2110 0
-2107 -2108 0
-2107 -2109 0
-2107 -2110 0
-2108 -2109 0
-2108 -2110 0
-2109 -2110 0
2111 2112 2113 2114 2115 0
-2111 -2112 0
-2111 -2113 0
-2111 -2114 0
-2111 -2115 0
-2112 -2113 0
-2112 -2114 0
-2112 -2115 0
-2113 -2114 0
-2113 -2115 0
-2114 -2115 0
2116 2117 2118 2119 2120 0
-2116 -2117 0
-2116 -2118 0
-2116 -2119 0
-2116 -2120 0
-2117 -2118 0
-2117 -2119 0
-2117 -2120 0
-2118 -2119 0
-2118 -2120 0
-2119 -2120 0
2121 2122 2123 2124 2125 0
-2121 -2122 0
-2121 -2123 0
-2121 -2124 0
-2121 -2125 0
-2122 -2123 0
-2122 -2124 0
-2122 -2125 0
-2123 -2124 0
-2123 -2125 0
-2124 -2125 0
2126 2127 2128 2129 2130 0
-2126 -2127 0
-2126 -2128 0
-2126 -2129 0
-2126 -2130 0
-2127 -2128 0
-2127 -2129 0
-2127 -2130 0
-2128 -2129 0
-2128 -2130 0
-2129 -2130 0
2131 2132 2133 2134 2135 0
-2131 -2132 0
-2131 -2133 0
-2131 -2134 0
-2131 -2135 0
-2132 -2133 0
-2132 -2134 0
-2132 -2135 0
-2133 -2134 0
-2133 -2135 0
-2134 -2135 0
2136 2137 2138 2139 2140 0
-2136 -2137 0
-2136 -2138 0
-2136 -2139 0
-2136 -2140 0
-2137 -2138 0
-2137 -2139 0
-2137 -2140 0
-2138 -2139 0
-2138 -2140 0
-2139 -2140 0
2141 2142 2143 2144 2145 0
-2141 -2142 0
-2141 -2143 0
-2141 -2144 0
-2141 -2145 0
-2142 -2143 0
-2142 -2144 0
-2142 -2145 0
-2143 -2144 0
-2143 -2145 0
-2144 -2145 0
2146 2147 2148 2149 2150 0
-2146 -2147 0
-2146 -2148 0
-2146 -2149 0
-2146 -2150 0
-2147 -2148 0
-2147 -2149 0
-2147 -2150 0
-2148 -2149 0
-2148 -2150 0
-2149 -2150 0
2151 2152 2153 2154 2155 0
-2151 -2152 0
-2151 -2153 0
-2151 -2154 0
-2151 -2155 0
-2152 -2153 0
-2152 -2154 0
-2152 -2155 0
-2153 -2154 0
-2153 -2155 0
-2154 -2155 0
2156 2157 2158 2159 2160 0
-2156 -2157 0
-2156 -2158 0
-2156 -2159 0
-2156 -2160 0
-2157 -2158 0
-2157 -2159 0
-2157 -2160 0
-2158 -2159 0
-2158 -2160 0
-2159 -2160 0
2161 2162 2163 2164 2165 0
-2161 -2162 0
-2161 -2163 0
-2161 -2164 0
-2161 -2165 0
-2162 -2163 0
-2162 -2164 0
-2162 -2165 0
-2163 -2164 0
-2163 -2165 0
-2164 -2165 0
2166 2167 2168 2169 2170 0
-2166 -2167 0
-2166 -2168 0
-2166 -2169 0
-2166 -2170 0
-2167 -2168 0
-2167 -2169 0
-2167 -2170 0
-2168 -2169 0
-2168 -2170 0
-2169 -2170 0
2171 2172 2173 2174 2175 0
-2171 -2172 0
-2171 -2173 0
-2171 -2174 0
-2171 -2175 0
-2172 -2173 0
-2172 -2174 0
-2172 -2175 0
-2173 -2174 0
-2173 -2175 0
-2174 -2175 0
2176 2177 2178 2179 2180 0
-2176 -2177 0
-2176 -2178 0
-2176 -2179 0
-2176 -2180 0
-2177 -2178 0
-2177 -2179 0
-2177 -2180 0
-2178 -2179 0
-2178 -2180 0
-2179 -2180 0
2181 2182 2183 2184 2185 0
-2181 -2182 0
-2181 -2183 0
-2181 -2184 0
-2181 -2185 0
-2182 -2183 0
-2182 -2184 0
-2182 -2185 0
-2183 -2184 0
-2183 -2185 0
-2184 -2185 0
2186 2187 2188 2189 2190 0
-2186 -2187 0
-2186 -2188 0
-2186 -2189 0
-2186 -2190 0
-2187 -2188 0
-2187 -2189 0
-2187 -2190 0
-2188 -2189 0
-2188 -2190 0
-2189 -2190 0
2191 2192 2193 2194 2195 0
-2191 -2192 0
-2191 -2193 0
-2191 -2194 0
-2191 -2195 0
-2192 -2193 0
-2192 -2194 0
-2192 -2195 0
-2193 -2194 0
-2193 -2195 0
-2194 -2195 0
2196 2197 2198 2199 2200 0
-2196 -2197 0
-2196 -2198 0
-2196 -2199 0
-2196 -2200 0
-2197 -2198 0
-2197 -2199 0
-2197 -2200 0
-2198 -2199 0
-2198 -2200 0
-2199 -2200 0
2201 2202 2203 2204 2205 0
-2201 -2202 0
-2201 -2203 0
-2201 -2204 0
-2201 -2205 0
-2202 -2203 0
-2202 -2204 0
-2202 -2205 0
-2203 -2204 0
-2203 -2205 0
-2204 -2205 0
2206 2207 2208 2209 2210 0
-2206 -2207 0
-2206 -2208 0
-2206 -2209 0
-2206 -2210 0
-2207 -2208 0
-2207 -2209 0
-2207 -2210 0
-2208 -2209 0
-2208 -2210 0
-2209 -2210 0
2211 2212 2213 2214 2215 0
-2211 -2212 0
-2211 -2213 0
-2211 -2214 0
-2211 -2215 0
-2212 -2213 0
-2212 -2214 0
-2212 -2215 0
-2213 -2214 0
-2213 -2215 0
-2214 -2215 0
2216 2217 2218 2219 2220 0
-2216 -2217 0
-2216 -2218 0
-2216 -2219 0
-2216 -2220 0
-2217 -2218 0
-2217 -2219 0
-2217 -2220 0
-2218 -2219 0
-2218 -2220 0
-2219 -2220 0
2221 2222 2223 2224 2225 0
-2221 -2222 0
-2221 -2223 0
-2221 -2224 0
-2221 -2225 0
-2222 -2223 0
-2222 -2224 0
-2222 -2225 0
-2223 -2224 0
-2223 -2225 0
-2224 -2225 0
2226 2227 2228 2229 2230 0
-2226 -2227 0
-2226 -2228 0
-2226 -2229 0
-2226 -2230 0
-2227 -2228 0
-2227 -2229 0
-2227 -2230 0
-2228 -2229 0
-2228 -2230 0
-2229 -2230 0
2231 2232 2233 2234 2235 0
-2231 -2232 0
-2231 -2233 0
-2231 -2234 0
-2231 -2235 0
-2232 -2233 0
-2232 -2234 0
-2232 -2235 0
-2233 -2234 0
-2233 -2235 0
-2234 -2235 0
2236 2237 2238 2239 2240 0
-2236 -2237 0
-2236 -2238 0
-2236 -2239 0
-2236 -2240 0
-2237 -2238 0
-2237 -2239 0
-2237 -2240 0
-2238 -2239 0
-2238 -2240 0
-2239 -2240 0
2241 2242 2243 2244 2245 0
-2241 -2242 0
-2241 -2243 0
-2241 -2244 0
-2241 -2245 0
-2242 -2243 0
-2242 -2244 0
-2242 -2245 0
-2243 -2244 0
-2243 -2245 0
-2244 -2245 0
2246 2247 2248 2249 2250 0
-2246 -2247 0
-2246 -2248 0
-2246 -2249 0
-2246 -2250 0
-2247 -2248 0
-2247 -2249 0
-2247 -2250 0
-2248 -2249 0
-2248 -2250 0
-2249 -2250 0
2251 2252 2253 2254 2255 0
-2251 -2252 0
-2251 -2253 0
-2251 -2254 0
-2251 -2255 0
-2252 -2253 0
-2252 -2254 0
-2252 -2255 0
-2253 -2254 0
-2253 -2255 0
-2254 -2255 0
2256 2257 2258 2259 2260 0
-2256 -2257 0
-2256 -2258 0
-2256 -2259 0
-2256 -2260 0
-2257 -2258 0
-2257 -2259 0
-2257 -2260 0
-2258 -2259 0
-2258 -2260 0
-2259 -2260 0
2261 2262 2263 2264 2265 0
-2261 -2262 0
-2261 -2263 0
-2261 -2264 0
-2261 -2265 0
-2262 -2263 0
-2262 -2264 0
-2262 -2265 0
-2263 -2264 0
-2263 -2265 0
-2264 -2265 0
2266 2267 2268 2269 2270 0
-2266 -2267 0
-2266 -2268 0
-2266 -2269 0
-2266 -2270 0
-2267 -2268 0
-2267 -2269 0
-2267 -2270 0
-2268 -2269 0
-2268 -2270 0
-2269 -2270 0
2271 2272 2273 2274 2275 0
-2271 -2272 0
-2271 -2273 0
-2271 -2274 0
-2271 -2275 0
-2272 -2273 0
-2272 -2274 0
-2272 -2275 0
-2273 -2274 0
-2273 -2275 0
-2274 -2275 0
2276 2277 2278 2279 2280 0
-2276 -2277 0
-2276 -2278 0
-2276 -2279 0
-2276 -2280 0
-2277 -2278 0
-2277 -2279 0
-2277 -2280 0
-2278 -2279 0
-2278 -2280 0
-2279 -2280 0
2281 2282 2283 2284 2285 0
-2281 -2282 0
-2281 -2283 0
-2281 -2284 0
-2281 -2285 0
-2282 -2283 0
-2282 -2284 0
-2282 -2285 0
-2283 -2284 0
-2283 -2285 0
-2284 -2285 0
2286 2287 2288 2289 2290 0
-2286 -2287 0
-2286 -2288 0
-2286 -2289 0
-2286 -2290 0
-2287 -2288 0
-2287 -2289 0
-2287 -2290 0
-2288 -2289 0
-2288 -2290 0
-2289 -2290 0
2291 2292 2293 2294 2295 0
-2291 -2292 0
-2291 -2293 0
-2291 -2294 0
-2291 -2295 0
-2292 -2293 0
-2292 -2294 0
-2292 -2295 0
-2293 -2294 0
-2293 -2295 0
-2294 -2295 0
2296 2297 2298 2299 2300 0
-2296 -2297 0
-2296 -2298 0
-2296 -2299 0
-2296 -2300 0
-2297 -2298 0
-2297 -2299 0
-2297 -2300 0
-2298 -2299 0
-2298 -2300 0
-2299 -2300 0
2301 2302 2303 2304 2305 0
-2301 -2302 0
-2301 -2303 0
-2301 -2304 0
-2301 -2305 0
-2302 -2303 0
-2302 -2304 0
-2302 -2305 0
-2303 -2304 0
-2303 -2305 0
-2304 -2305 0
2306 2307 2308 2309 2310 0
-2306 -2307 0
-2306 -2308 0
-2306 -2309 0
-2306 -2310 0
-2307 -2308 0
-2307 -2309 0
-2307 -2310 0
-2308 -2309 0
-2308 -2310 0
-2309 -2310 0
2311 2312 2313 2314 2315 0
-2311 -2312 0
-2311 -2313 0
-2311 -2314 0
-2311 -2315 0
-2312 -2313 0
-2312 -2314 0
-2312 -2315 0
-2313 -2314 0
-2313 -2315 0
-2314 -2315 0
2316 2317 2318 2319 2320 0
-2316 -2317 0
-2316 -2318 0
-2316 -2319 0
-2316 -2320 0
-2317 -2318 0
-2317 -2319 0
-2317 -2320 0
-2318 -2319 0
-2318 -2320 0
-2319 -2320 0
2321 2322 2323 2324 2325 0
-2321 -2322 0
-2321 -2323 0
-2321 -2324 0
-2321 -2325 0
-2322 -2323 0
-2322 -2324 0
-2322 -2325 0
-2323 -2324 0
-2323 -2325 0
-2324 -2325 0
2326 2327 2328 2329 2330 0
-2326 -2327 0
-2326 -2328 0
-2326 -2329 0
-2326 -2330 0
-2327 -2328 0
-2327 -2329 0
-2327 -2330 0
-2328 -2329 0
-2328 -2330 0
-2329 -2330 0
2331 2332 2333 2334 2335 0
-2331 -2332 0
-2331 -2333 0
-2331 -2334 0
-2331 -2335 0
-2332 -2333 0
-2332 -2334 0
-2332 -2335 0
-2333 -2334 0
-2333 -2335 0
-2334 -2335 0
2336 2337 2338 2339 2340 0
-2336 -2337 0
-2336 -2338 0
-2336 -2339 0
-2336 -2340 0
-2337 -2338 0
-2337 -2339 0
-2337 -2340 0
-2338 -2339 0
-2338 -2340 0
-2339 -2340 0
2341 2342 2343 2344 2345 0
-2341 -2342 0
-2341 -2343 0
-2341 -2344 0
-2341 -2345 0
-2342 -2343 0
-2342 -2344 0
-2342 -2345 0
-2343 -2344 0
-2343 -2345 0
-2344 -2345 0
2346 2347 2348 2349 2350 0
-2346 -2347 0
-2346 -2348 0
-2346 -2349 0
-2346 -2350 0
-2347 -2348 0
-2347 -2349 0
-2347 -2350 0
-2348 -2349 0
-2348 -2350 0
-2349 -2350 0
2351 2352 2353 2354 2355 0
-2351 -2352 0
-2351 -2353 0
-2351 -2354 0
-2351 -2355 0
-2352 -2353 0
-2352 -2354 0
-2352 -2355 0
-2353 -2354 0
-2353 -2355 0
-2354 -2355 0
2356 2357 2358 2359 2360 0
-2356 -2357 0
-2356 -2358 0
-2356 -2359 0
-2356 -2360 0
-2357 -2358 0
-2357 -2359 0
-2357 -2360 0
-2358 -2359 0
-2358 -2360 0
-2359 -2360 0
2361 2362 2363 2364 2365 0
-2361 -2362 0
-2361 -2363 0
-2361 -2364 0
-2361 -2365 0
-2362 -2363 0
-2362 -2364 0
-2362 -2365 0
-2363 -2364 0
-2363 -2365 0
-2364 -2365 0
2366 2367 2368 2369 2370 0
-2366 -2367 0
-2366 -2368 0
-2366 -2369 0
-2366 -2370 0
-2367 -2368 0
-2367 -2369 0
-2367 -2370 0
-2368 -2369 0
-2368 -2370 0
-2369 -2370 0
2371 2372 2373 2374 2375 0
-2371 -2372 0
-2371 -2373 0
-2371 -2374 0
-2371 -2375 0
-2372 -2373 0
-2372 -2374 0
-2372 -2375 0
-2373 -2374 0
-2373 -2375 0
-2374 -2375 0
2376 2377 2378 2379 2380 0
-2376 -2377 0
-2376 -2378 0
-2376 -2379 0
-2376 -2380 0
-2377 -2378 0
-2377 -2379 0
-2377 -2380 0
-2378 -2379 0
-2378 -2380 0
-2379 -2380 0
2381 2382 2383 2384 2385 0
-2381 -2382 0
-2381 -2383 0
-2381 -2384 0
-2381 -2385 0
-2382 -2383 0
-2382 -2384 0
-2382 -2385 0
-2383 -2384 0
-2383 -2385 0
-2384 -2385 0
2386 2387 2388 2389 2390 0
-2386 -2387 0
-2386 -2388 0
-2386 -2389 0
-2386 -2390 0
-2387 -2388 0
-2387 -2389 0
-2387 -2390 0
-2388 -2389 0
-2388 -2390 0
-2389 -2390 0
2391 2392 2393 2394 2395 0
-2391 -2392 0
-2391 -2393 0
-2391 -2394 0
-2391 -2395 0
-2392 -2393 0
-2392 -2394 0
-2392 -2395 0
-2393 -2394 0
-2393 -2395 0
-2394 -2395 0
2396 2397 2398 2399 2400 0
-2396 -2397 0
-2396 -2398 0
-2396 -2399 0
-2396 -2400 0
-2397 -2398 0
-2397 -2399 0
-2397 -2400 0
-2398 -2399 0
-2398 -2400 0
-2399 -2400 0
2401 2402 2403 2404 2405 0
-2401 -2402 0
-2401 -2403 0
-2401 -2404 0
-2401 -2405 0
-2402 -2403 0
-2402 -2404 0
-2402 -2405 0
-2403 -2404 0
-2403 -2405 0
-2404 -2405 0
2406 2407 2408 2409 2410 0
-2406 -2407 0
-2406 -2408 0
-2406 -2409 0
-2406 -2410 0
-2407 -2408 0
-2407 -2409 0
-2407 -2410 0
-2408 -2409 0
-2408 -2410 0
-2409 -2410 0
2411 2412 2413 2414 2415 0
-2411 -2412 0
-2411 -2413 0
-2411 -2414 0
-2411 -2415 0
-2412 -2413 0
-2412 -2414 0
-2412 -2415 0
-2413 -2414 0
-2413 -2415 0
-2414 -2415 0
2416 2417 2418 2419 2420 0
-2416 -2417 0
-2416 -2418 0
-2416 -2419 0
-2416 -2420 0
-2417 -2418 0
-2417 -2419 0
-2417 -2420 0
-2418 -2419 0
-2418 -2420 0
-2419 -2420 0
2421 2422 2423 2424 2425 0
-2421 -2422 0
-2421 -2423 0
-2421 -2424 0
-2421 -2425 0
-2422 -2423 0
-2422 -2424 0
-2422 -2425 0
-2423 -2424 0
-2423 -2425 0
-2424 -2425 0
2426 2427 2428 2429 2430 0
-2426 -2427 0
-2426 -2428 0
-2426 -2429 0
-2426 -2430 0
-2427 -2428 0
-2427 -2429 0
-2427 -2430 0
-2428 -2429 0
-2428 -2430 0
-2429 -2430 0
2431 2432 2433 2434 2435 0
-2431 -2432 0
-2431 -2433 0
-2431 -2434 0
-2431 -2435 0
-2432 -2433 0
-2432 -2434 0
-2432 -2435 0
-2433 -2434 0
-2433 -2435 0
-2434 -2435 0
2436 2437 2438 2439 2440 0
-2436 -2437 0
-2436 -2438 0
-2436 -2439 0
-2436 -2440 0
-2437 -2438 0
-2437 -2439 0
-2437 -2440 0
-2438 -2439 0
-2438 -2440 0
-2439 -2440 0
2441 2442 2443 2444 2445 0
-2441 -2442 0
-2441 -2443 0
-2441 -2444 0
-2441 -2445 0
-2442 -2443 0
-2442 -2444 0
-2442 -2445 0
-2443 -2444 0
-2443 -2445 0
-2444 -2445 0
2446 2447 2448 2449 2450 0
-2446 -2447 0
-2446 -2448 0
-2446 -2449 0
-2446 -2450 0
-2447 -2448 0
-2447 -2449 0
-2447 -2450 0
-2448 -2449 0
-2448 -2450 0
-2449 -2450 0
2451 2452 2453 2454 2455 0
-2451 -2452 0
-2451 -2453 0
-2451 -2454 0
-2451 -2455 0
-2452 -2453 0
-2452 -2454 0
-2452 -2455 0
-2453 -2454 0
-2453 -2455 0
-2454 -2455 0
2456 2457 2458 2459 2460 0
-2456 -2457 0
-2456 -2458 0
-2456 -2459 0
-2456 -2460 0
-2457 -2458 0
-2457 -2459 0
-2457 -2460 0
-2458 -2459 0
-2458 -2460 0
-2459 -2460 0
2461 2462 2463 2464 2465 0
-2461 -2462 0
-2461 -2463 0
-2461 -2464 0
-2461 -2465 0
-2462 -2463 0
-2462 -2464 0
-2462 -2465 0
-2463 -2464 0
-2463 -2465 0
-2464 -2465 0
2466 2467 2468 2469 2470 0
-2466 -2467 0
-2466 -2468 0
-2466 -2469 0
-2466 -2470 0
-2467 -2468 0
-2467 -2469 0
-2467 -2470 0
-2468 -2469 0
-2468 -2470 0
-2469 -2470 0
2471 2472 2473 2474 2475 0
-2471 -2472 0
-2471 -2473 0
-2471 -2474 0
-2471 -2475 0
-2472 -2473 0
-2472 -2474 0
-2472 -2475 0
-2473 -2474 0
-2473 -2475 0
-2474 -2475 0
2476 2477 2478 2479 2480 0
-2476 -2477 0
-2476 -2478 0
-2476 -2479 0
-2476 -2480 0
-2477 -2478 0
-2477 -2479 0
-2477 -2480 0
-2478 -2479 0
-2478 -2480 0
-2479 -2480 0
2481 2482 2483 2484 2485 0
-2481 -2482 0
-2481 -2483 0
-2481 -2484 0
-2481 -2485 0
-2482 -2483 0
-2482 -2484 0
-2482 -2485 0
-2483 -2484 0
-2483 -2485 0
-2484 -2485 0
2486 2487 2488 2489 2490 0
-2486 -2487 0
-2486 -2488 0
-2486 -2489 0
-2486 -2490 0
-2487 -2488 0
-2487 -2489 0
-2487 -2490 0
-2488 -2489 0
-2488 -2490 0
-2489 -2490 0
2491 2492 2493 2494 2495 0
-2491 -2492 0
-2491 -2493 0
-2491 -2494 0
-2491 -2495 0
-2492 -2493 0
-2492 -2494 0
-2492 -2495 0
-2493 -2494 0
-2493 -2495 0
-2494 -2495 0
2496 2497 2498 2499 2500 0
-2496 -2497 0
-2496 -2498 0
-2496 -2499 0
-2496 -2500 0
-2497 -2498 0
-2497 -2499 0
-2497 -2500 0
-2498 -2499 0
-2498 -2500 0
-2499 -2500 0
2501 2502 2503 2504 2505 0
-2501 -2502 0
-2501 -2503 0
-2501 -2504 0
-2501 -2505 0
-2502 -2503 0
-2502 -2504 0
-2502 -2505 0
-2503 -2504 0
-2503 -2505 0
-2504 -2505 0
2506 2507 2508 2509 2510 0
-2506 -2507 0
-2506 -2508 0
-2506 -2509 0
-2506 -2510 0
-2507 -2508 0
-2507 -2509 0
-2507 -2510 0
-2508 -2509 0
-2508 -2510 0
-2509 -2510 0
2511 2512 2513 2514 2515 0
-2511 -2512 0
-2511 -2513 0
-2511 -2514 0
-2511 -2515 0
-2512 -2513 0
-2512 -2514 0
-2512 -2515 0
-2513 -2514 0
-2513 -2515 0
-2514 -2515 0
2516 2517 2518 2519 2520 0
-2516 -2517 0
-2516 -2518 0
-2516 -2519 0
-2516 -2520 0
-2517 -2518 0
-2517 -2519 0
-2517 -2520 0
-2518 -2519 0
-2518 -2520 0
-2519 -2520 0
2521 2522 2523 2524 2525 0
-2521 -2522 0
-2521 -2523 0
-2521 -2524 0
-2521 -2525 0
-2522 -2523 0
-2522 -2524 0
-2522 -2525 0
-2523 -2524 0
-2523 -2525 0
-2524 -2525 0
2526 2527 2528 2529 2530 0
-2526 -2527 0
-2526 -2528 0
-2526 -2529 0
-2526 -2530 0
-2527 -2528 0
-2527 -2529 0
-2527 -2530 0
-2528 -2529 0
-2528 -2530 0
-2529 -2530 0
2531 2532 2533 2534 2535 0
-2531 -2532 0
-2531 -2533 0
-2531 -2534 0
-2531 -2535 0
-2532 -2533 0
-2532 -2534 0
-2532 -2535 0
-2533 -2534 0
-2533 -2535 0
-2534 -2535 0
2536 2537 2538 2539 2540 0
-2536 -2537 0
-2536 -2538 0
-2536 -2539 0
-2536 -2540 0
-2537 -2538 0
-2537 -2539 0
-2537 -2540 0
-2538 -2539 0
-2538 -2540 0
-2539 -2540 0
2541 2542 2543 2544 2545 0
-2541 -2542 0
-2541 -2543 0
-2541 -2544 0
-2541 -2545 0
-2542 -2543 0
-2542 -2544 0
-2542 -2545 0
-2543 -2544 0
-2543 -2545 0
-2544 -2545 0
2546 2547 2548 2549 2550 0
-2546 -2547 0
-2546 -2548 0
-2546 -2549 0
-2546 -2550 0
-2547 -2548 0
-2547 -2549 0
-2547 -2550 0
-2548 -2549 0
-2548 -2550 0
-2549 -2550 0
2551 2552 2553 2554 2555 0
-2551 -2552 0
-2551 -2553 0
-2551 -2554 0
-2551 -2555 0
-2552 -2553 0
-2552 -2554 0
-2552 -2555 0
-2553 -2554 0
-2553 -2555 0
-2554 -2555 0
2556 2557 2558 2559 2560 0
-2556 -2557 0
-2556 -2558 0
-2556 -2559 0
-2556 -2560 0
-2557 -2558 0
-2557 -2559 0
-2557 -2560 0
-2558 -2559 0
-2558 -2560 0
-2559 -2560 0
2561 2562 2563 2564 2565 0
-2561 -2562 0
-2561 -2563 0
-2561 -2564 0
-2561 -2565 0
-2562 -2563 0
-2562 -2564 0
-2562 -2565 0
-2563 -2564 0
-2563 -2565 0
-2564 -2565 0
2566 2567 2568 2569 2570 0
-2566 -2567 0
-2566 -2568 0
-2566 -2569 0
-2566 -2570 0
-2567 -2568 0
-2567 -2569 0
-2567 -2570 0
-2568 -2569 0
-2568 -2570 0
-2569 -2570 0
2571 2572 2573 2574 2575 0
-2571 -2572 0
-2571 -2573 0
-2571 -2574 0
-2571 -2575 0
-2572 -2573 0
-2572 -2574 0
-2572 -2575 0
-2573 -2574 0
-2573 -2575 0
-2574 -2575 0
2576 2577 2578 2579 2580 0
-2576 -2577 0
-2576 -2578 0
-2576 -2579 0
-2576 -2580 0
-2577 -2578 0
-2577 -2579 0
-2577 -2580 0
-2578 -2579 0
-2578 -2580 0
-2579 -2580 0
2581 2582 2583 2584 2585 0
-2581 -2582 0
-2581 -2583 0
-2581 -2584 0
-2581 -2585 0
-2582 -2583 0
-2582 -2584 0
-2582 -2585 0
-2583 -2584 0
-2583 -2585 0
-2584 -2585 0
2586 2587 2588 2589 2590 0
-2586 -2587 0
-2586 -2588 0
-2586 -2589 0
-2586 -2590 0
-2587 -2588 0
-2587 -2589 0
-2587 -2590 0
-2588 -2589 0
-2588 -2590 0
-2589 -2590 0
2591 2592 2593 2594 2595 0
-2591 -2592 0
-2591 -2593 0
-2591 -2594 0
-2591 -2595 0
-2592 -2593 0
-2592 -2594 0
-2592 -2595 0
-2593 -2594 0
-2593 -2595 0
-2594 -2595 0
2596 2597 2598 2599 2600 0
-2596 -2597 0
-2596 -2598 0
-2596 -2599 0
-2596 -2600 0
-2597 -2598 0
-2597 -2599 0
-2597 -2600 0
-2598 -2599 0
-2598 -2600 0
-2599 -2600 0
2601 2602 2603 2604 2605 0
-2601 -2602 0
-2601 -2603 0
-2601 -2604 0
-2601 -2605 0
-2602 -2603 0
-2602 -2604 0
-2602 -2605 0
-2603 -2604 0
-2603 -2605 0
-2604 -2605 0
2606 2607 2608 2609 2610 0
-2606 -2607 0
-2606 -2608 0
-2606 -2609 0
-2606 -2610 0
-2607 -2608 0
-2607 -2609 0
-2607 -2610 0
-2608 -2609 0
-2608 -2610 0
-2609 -2610 0
2611 2612 2613 2614 2615 0
-2611 -2612 0
-2611 -2613 0
-2611 -2614 0
-2611 -2615 0
-2612 -2613 0
-2612 -2614 0
-2612 -2615 0
-2613 -2614 0
-2613 -2615 0
-2614 -2615 0
2616 2617 2618 2619 2620 0
-2616 -2617 0
-2616 -2618 0
-2616 -2619 0
-2616 -2620 0
-2617 -2618 0
-2617 -2619 0
-2617 -2620 0
-2618 -2619 0
-2618 -2620 0
-2619 -2620 0
2621 2622 2623 2624 2625 0
-2621 -2622 0
-2621 -2623 0
-2621 -2624 0
-2621 -2625 0
-2622 -2623 0
-2622 -2624 0
-2622 -2625 0
-2623 -2624 0
-2623 -2625 0
-2624 -2625 0
2626 2627 2628 2629 2630 0
-2626 -2627 0
-2626 -2628 0
-2626 -2629 0
-2626 -2630 0
-2627 -2628 0
-2627 -2629 0
-2627 -2630 0
-2628 -2629 0
-2628 -2630 0
-2629 -2630 0
2631 2632 2633 2634 2635 0
-2631 -2632 0
-2631 -2633 0
-2631 -2634 0
-2631 -2635 0
-2632 -2633 0
-2632 -2634 0
-2632 -2635 0
-2633 -2634 0
-2633 -2635 0
-2634 -2635 0
2636 2637 2638 2639 2640 0
-2636 -2637 0
-2636 -2638 0
-2636 -2639 0
-2636 -2640 0
-2637 -2638 0
-2637 -2639 0
-2637 -2640 0
-2638 -2639 0
-2638 -2640 0
-2639 -2640 0
2641 2642 2643 2644 2645 0
-2641 -2642 0
-2641 -2643 0
-2641 -2644 0
-2641 -2645 0
-2642 -2643 0
-2642 -2644 0
-2642 -2645 0
-2643 -2644 0
-2643 -2645 0
-2644 -2645 0
2646 2647 2648 2649 2650 0
-2646 -2647 0
-2646 -2648 0
-2646 -2649 0
-2646 -2650 0
-2647 -2648 0
-2647 -2649 0
-2647 -2650 0
-2648 -2649 0
-2648 -2650 0
-2649 -2650 0
2651 2652 2653 2654 2655 0
-2651 -2652 0
-2651 -2653 0
-2651 -2654 0
-2651 -2655 0
-2652 -2653 0
-2652 -2654 0
-2652 -2655 0
-2653 -2654 0
-2653 -2655 0
-2654 -2655 0
2656 2657 2658 2659 2660 0
-2656 -2657 0
-2656 -2658 0
-2656 -2659 0
-2656 -2660 0
-2657 -2658 0
-2657 -2659 0
-2657 -2660 0
-2658 -2659 0
-2658 -2660 0
-2659 -2660 0
2661 2662 2663 2664 2665 0
-2661 -2662 0
-2661 -2663 0
-2661 -2664 0
-2661 -2665 0
-2662 -2663 0
-2662 -2664 0
-2662 -2665 0
-2663 -2664 0
-2663 -2665 0
-2664 -2665 0
2666 2667 2668 2669 2670 0
-2666 -2667 0
-2666 -2668 0
-2666 -2669 0
-2666 -2670 0
-2667 -2668 0
-2667 -2669 0
-2667 -2670 0
-2668 -2669 0
-2668 -2670 0
-2669 -2670 0
2671 2672 2673 2674 2675 0
-2671 -2672 0
-2671 -2673 0
-2671 -2674 0
-2671 -2675 0
-2672 -2673 0
-2672 -2674 0
-2672 -2675 0
-2673 -2674 0
-2673 -2675 0
-2674 -2675 0
2676 2677 2678 2679 2680 0
-2676 -2677 0
-2676 -2678 0
-2676 -2679 0
-2676 -2680 0
-2677 -2678 0
-2677 -2679 0
-2677 -2680 0
-2678 -2679 0
-2678 -2680 0
-2679 -2680 0
2681 2682 2683 2684 2685 0
-2681 -2682 0
-2681 -2683 0
-2681 -2684 0
-2681 -2685 0
-2682 -2683 0
-2682 -2684 0
-2682 -2685 0
-2683 -2684 0
-2683 -2685 0
-2684 -2685 0
2686 2687 2688 2689 2690 0
-2686 -2687 0
-2686 -2688 0
-2686 -2689 0
-2686 -2690 0
-2687 -2688 0
-2687 -2689 0
-2687 -2690 0
-2688 -2689 0
-2688 -2690 0
-2689 -2690 0
2691 2692 2693 2694 2695 0
-2691 -2692 0
-2691 -2693 0
-2691 -2694 0
-2691 -2695 0
-2692 -2693 0
-2692 -2694 0
-2692 -2695 0
-2693 -2694 0
-2693 -2695 0
-2694 -2695 0
2696 2697 2698 2699 2700 0
-2696 -2697 0
-2696 -2698 0
-2696 -2699 0
-2696 -2700 0
-2697 -2698 0
-2697 -2699 0
-2697 -2700 0
-2698 -2699 0
-2698 -2700 0
-2699 -2700 0
2701 2702 2703 2704 2705 0
-2701 -2702 0
-2701 -2703 0
-2701 -2704 0
-2701 -2705 0
-2702 -2703 0
-2702 -2704 0
-2702 -2705 0
-2703 -2704 0
-2703 -2705 0
-2704 -2705 0
2706 2707 2708 2709 2710 0
-2706 -2707 0
-2706 -2708 0
-2706 -2709 0
-2706 -2710 0
-2707 -2708 0
-2707 -2709 0
-2707 -2710 0
-2708 -2709 0
-2708 -2710 0
-2709 -2710 0
2711 2712 2713 2714 2715 0
-2711 -2712 0
-2711 -2713 0
-2711 -2714 0
-2711 -2715 0
-2712 -2713 0
-2712 -2714 0
-2712 -2715 0
-2713 -2714 0
-2713 -2715 0
-2714 -2715 0
2716 2717 2718 2719 2720 0
-2716 -2717 0
-2716 -2718 0
-2716 -2719 0
-2716 -2720 0
-2717 -2718 0
-2717 -2719 0
-2717 -2720 0
-2718 -2719 0
-2718 -2720 0
-2719 -2720 0
2721 2722 2723 2724 2725 0
-2721 -2722 0
-2721 -2723 0
-2721 -2724 0
-2721 -2725 0
-2722 -2723 0
-2722 -2724 0
-2722 -2725 0
-2723 -2724 0
-2723 -2725 0
-2724 -2725 0
2726 2727 2728 2729 2730 0
-2726 -2727 0
-2726 -2728 0
-2726 -2729 0
-2726 -2730 0
-2727 -2728 0
-2727 -2729 0
-2727 -2730 0
-2728 -2729 0
-2728 -2730 0
-2729 -2730 0
2731 2732 2733 2734 2735 0
-2731 -2732 0
-2731 -2733 0
-2731 -2734 0
-2731 -2735 0
-2732 -2733 0
-2732 -2734 0
-2732 -2735 0
-2733 -2734 0
-2733 -2735 0
-2734 -2735 0
2736 2737 2738 2739 2740 0
-2736 -2737 0
-2736 -2738 0
-2736 -2739 0
-2736 -2740 0
-2737 -2738 0
-2737 -2739 0
-2737 -2740 0
-2738 -2739 0
-2738 -2740 0
-2739 -2740 0
2741 2742 2743 2744 2745 0
-2741 -2742 0
-2741 -2743 0
-2741 -2744 0
-2741 -2745 0
-2742 -2743 0
-2742 -2744 0
-2742 -2745 0
-2743 -2744 0
-2743 -2745 0
-2744 -2745 0
2746 2747 2748 2749 2750 0
-2746 -2747 0
-2746 -2748 0
-2746 -2749 0
-2746 -2750 0
-2747 -2748 0
-2747 -2749 0
-2747 -2750 0
-2748 -2749 0
-2748 -2750 0
-2749 -2750 0
2751 2752 2753 2754 2755 0
-2751 -2752 0
-2751 -2753 0
-2751 -2754 0
-2751 -2755 0
-2752 -2753 0
-2752 -2754 0
-2752 -2755 0
-2753 -2754 0
-2753 -2755 0
-2754 -2755 0
2756 2757 2758 2759 2760 0
-2756 -2757 0
-2756 -2758 0
-2756 -2759 0
-2756 -2760 0
-2757 -2758 0
-2757 -2759 0
-2757 -2760 0
-2758 -2759 0
-2758 -2760 0
-2759 -2760 0
2761 2762 2763 2764 2765 0
-2761 -2762 0
-2761 -2763 0
-2761 -2764 0
-2761 -2765 0
-2762 -2763 0
-2762 -2764 0
-2762 -2765 0
-2763 -2764 0
-2763 -2765 0
-2764 -2765 0
2766 2767 2768 2769 2770 0
-2766 -2767 0
-2766 -2768 0
-2766 -2769 0
-2766 -2770 0
-2767 -2768 0
-2767 -2769 0
-2767 -2770 0
-2768 -2769 0
-2768 -2770 0
-2769 -2770 0
2771 2772 2773 2774 2775 0
-2771 -2772 0
-2771 -2773 0
-2771 -2774 0
-2771 -2775 0
-2772 -2773 0
-2772 -2774 0
-2772 -2775 0
-2773 -2774 0
-2773 -2775 0
-2774 -2775 0
2776 2777 2778 2779 2780 0
-2776 -2777 0
-2776 -2778 0
-2776 -2779 0
-2776 -2780 0
-2777 -2778 0
-2777 -2779 0
-2777 -2780 0
-2778 -2779 0
-2778 -2780 0
-2779 -2780 0
2781 2782 2783 2784 2785 0
-2781 -2782 0
-2781 -2783 0
-2781 -2784 0
-2781 -2785 0
-2782 -2783 0
-2782 -2784 0
-2782 -2785 0
-2783 -2784 0
-2783 -2785 0
-2784 -2785 0
2786 2787 2788 2789 2790 0
-2786 -2787 0
-2786 -2788 0
-2786 -2789 0
-2786 -2790 0
-2787 -2788 0
-2787 -2789 0
-2787 -2790 0
-2788 -2789 0
-2788 -2790 0
-2789 -2790 0
2791 2792 2793 2794 2795 0
-2791 -2792 0
-2791 -2793 0
-2791 -2794 0
-2791 -2795 0
-2792 -2793 0
-2792 -2794 0
-2792 -2795 0
-2793 -2794 0
-2793 -2795 0
-2794 -2795 0
2796 2797 2798 2799 2800 0
-2796 -2797 0
-2796 -2798 0
-2796 -2799 0
-2796 -2800 0
-2797 -2798 0
-2797 -2799 0
-2797 -2800 0
-2798 -2799 0
-2798 -2800 0
-2799 -2800 0
2801 2802 2803 2804 2805 0
-2801 -2802 0
-2801 -2803 0
-2801 -2804 0
-2801 -2805 0
-2802 -2803 0
-2802 -2804 0
-2802 -2805 0
-2803 -2804 0
-2803 -2805 0
-2804 -2805 0
2806 2807 2808 2809 2810 0
-2806 -2807 0
-2806 -2808 0
-2806 -2809 0
-2806 -2810 0
-2807 -2808 0
-2807 -2809 0
-2807 -2810 0
-2808 -2809 0
-2808 -2810 0
-2809 -2810 0
2811 2812 2813 2814 2815 0
-2811 -2812 0
-2811 -2813 0
-2811 -2814 0
-2811 -2815 0
-2812 -2813 0
-2812 -2814 0
-2812 -2815 0
-2813 -2814 0
-2813 -2815 0
-2814 -2815 0
2816 2817 2818 2819 2820 0
-2816 -2817 0
-2816 -2818 0
-2816 -2819 0
-2816 -2820 0
-2817 -2818 0
-2817 -2819 0
-2817 -2820 0
-2818 -2819 0
-2818 -2820 0
-2819 -2820 0
2821 2822 2823 2824 2825 0
-2821 -2822 0
-2821 -2823 0
-2821 -2824 0
-2821 -2825 0
-2822 -2823 0
-2822 -2824 0
-2822 -2825 0
-2823 -2824 0
-2823 -2825 0
-2824 -2825 0
2826 2827 2828 2829 2830 0
-2826 -2827 0
-2826 -2828 0
-2826 -2829 0
-2826 -2830 0
-2827 -2828 0
-2827 -2829 0
-2827 -2830 0
-2828 -2829 0
-2828 -2830 0
-2829 -2830 0
2831 2832 2833 2834 2835 0
-2831 -2832 0
-2831 -2833 0
-2831 -2834 0
-2831 -2835 0
-2832 -2833 0
-2832 -2834 0
-2832 -2835 0
-2833 -2834 0
-2833 -2835 0
-2834 -2835 0
2836 2837 2838 2839 2840 0
-2836 -2837 0
-2836 -2838 0
-2836 -2839 0
-2836 -2840 0
-2837 -2838 0
-2837 -2839 0
-2837 -2840 0
-2838 -2839 0
-2838 -2840 0
-2839 -2840 0
2841 2842 2843 2844 2845 0
-2841 -2842 0
-2841 -2843 0
-2841 -2844 0
-2841 -2845 0
-2842 -2843 0
-2842 -2844 0
-2842 -2845 0
-2843 -2844 0
-2843 -2845 0
-2844 -2845 0
2846 2847 2848 2849 2850 0
-2846 -2847 0
-2846 -2848 0
-2846 -2849 0
-2846 -2850 0
-2847 -2848 0
-2847 -2849 0
-2847 -2850 0
-2848 -2849 0
-2848 -2850 0
-2849 -2850 0
2851 2852 2853 2854 2855 0
-2851 -2852 0
-2851 -2853 0
-2851 -2854 0
-2851 -2855 0
-2852 -2853 0
-2852 -2854 0
-2852 -2855 0
-2853 -2854 0
-2853 -2855 0
-2854 -2855 0
2856 2857 2858 2859 2860 0
-2856 -2857 0
-2856 -2858 0
-2856 -2859 0
-2856 -2860 0
-2857 -2858 0
-2857 -2859 0
-2857 -2860 0
-2858 -2859 0
-2858 -2860 0
-2859 -2860 0
2861 2862 2863 2864 2865 0
-2861 -2862 0
-2861 -2863 0
-2861 -2864 0
-2861 -2865 0
-2862 -2863 0
-2862 -2864 0
-2862 -2865 0
-2863 -2864 0
-2863 -2865 0
-2864 -2865 0
2866 2867 2868 2869 2870 0
-2866 -2867 0
-2866 -2868 0
-2866 -2869 0
-2866 -2870 0
-2867 -2868 0
-2867 -2869 0
-2867 -2870 0
-2868 -2869 0
-2868 -2870 0
-2869 -2870 0
2871 2872 2873 2874 2875 0
-2871 -2872 0
-2871 -2873 0
-2871 -2874 0
-2871 -2875 0
-2872 -2873 0
-2872 -2874 0
-2872 -2875 0
-2873 -2874 0
-2873 -2875 0
-2874 -2875 0
2876 2877 2878 2879 2880 0
-2876 -2877 0
-2876 -2878 0
-2876 -2879 0
-2876 -2880 0
-2877 -2878 0
-2877 -2879 0
-2877 -2880 0
-2878 -2879 0
-2878 -2880 0
-2879 -2880 0
2881 2882 2883 2884 2885 0
-2881 -2882 0
-2881 -2883 0
-2881 -2884 0
-2881 -2885 0
-2882 -2883 0
-2882 -2884 0
-2882 -2885 0
-2883 -2884 0
-2883 -2885 0
-2884 -2885 0
2886 2887 2888 2889 2890 0
-2886 -2887 0
-2886 -2888 0
-2886 -2889 0
-2886 -2890 0
-2887 -2888 0
-2887 -2889 0
-2887 -2890 0
-2888 -2889 0
-2888 -2890 0
-2889 -2890 0
2891 2892 2893 2894 2895 0
-2891 -2892 0
-2891 -2893 0
-2891 -2894 0
-2891 -2895 0
-2892 -2893 0
-2892 -2894 0
-2892 -2895 0
-2893 -2894 0
-2893 -2895 0
-2894 -2895 0
2896 2897 2898 2899 2900 0
-2896 -2897 0
-2896 -2898 0
-2896 -2899 0
-2896 -2900 0
-2897 -2898 0
-2897 -2899 0
-2897 -2900 0
-2898 -2899 0
-2898 -2900 0
-2899 -2900 0
2901 2902 2903 2904 2905 0
-2901 -2902 0
-2901 -2903 0
-2901 -2904 0
-2901 -2905 0
-2902 -2903 0
-2902 -2904 0
-2902 -2905 0
-2903 -2904 0
-2903 -2905 0
-2904 -2905 0
2906 2907 2908 2909 2910 0
-2906 -2907 0
-2906 -2908 0
-2906 -2909 0
-2906 -2910 0
-2907 -2908 0
-2907 -2909 0
-2907 -2910 0
-2908 -2909 0
-2908 -2910 0
-2909 -2910 0
2911 2912 2913 2914 2915 0
-2911 -2912 0
-2911 -2913 0
-2911 -2914 0
-2911 -2915 0
-2912 -2913 0
-2912 -2914 0
-2912 -2915 0
-2913 -2914 0
-2913 -2915 0
-2914 -2915 0
2916 2917 2918 2919 2920 0
-2916 -2917 0
-2916 -2918 0
-2916 -2919 0
-2916 -2920 0
-2917 -2918 0
-2917 -2919 0
-2917 -2920 0
-2918 -2919 0
-2918 -2920 0
-2919 -2920 0
2921 2922 2923 2924 2925 0
-2921 -2922 0
-2921 -2923 0
-2921 -2924 0
-2921 -2925 0
-2922 -2923 0
-2922 -2924 0
-2922 -2925 0
-2923 -2924 0
-2923 -2925 0
-2924 -2925 0
2926 2927 2928 2929 2930 0
-2926 -2927 0
-2926 -2928 0
-2926 -2929 0
-2926 -2930 0
-2927 -2928 0
-2927 -2929 0
-2927 -2930 0
-2928 -2929 0
-2928 -2930 0
-2929 -2930 0
2931 2932 2933 2934 2935 0
-2931 -2932 0
-2931 -2933 0
-2931 -2934 0
-2931 -2935 0
-2932 -2933 0
-2932 -2934 0
-2932 -2935 0
-2933 -2934 0
-2933 -2935 0
-2934 -2935 0
2936 2937 2938 2939 2940 0
-2936 -2937 0
-2936 -2938 0
-2936 -2939 0
-2936 -2940 0
-2937 -2938 0
-2937 -2939 0
-2937 -2940 0
-2938 -2939 0
-2938 -2940 0
-2939 -2940 0
2941 2942 2943 2944 2945 0
-2941 -2942 0
-2941 -2943 0
-2941 -2944 0
-2941 -2945 0
-2942 -2943 0
-2942 -2944 0
-2942 -2945 0
-2943 -2944 0
-2943 -2945 0
-2944 -2945 0
2946 2947 2948 2949 2950 0
-2946 -2947 0
-2946 -2948 0
-2946 -2949 0
-2946 -2950 0
-2947 -2948 0
-2947 -2949 0
-2947 -2950 0
-2948 -2949 0
-2948 -2950 0
-2949 -2950 0
2951 2952 2953 2954 2955 0
-2951 -2952 0
-2951 -2953 0
-2951 -2954 0
-2951 -2955 0
-2952 -2953 0
-2952 -2954 0
-2952 -2955 0
-2953 -2954 0
-2953 -2955 0
-2954 -2955 0
2956 2957 2958 2959 2960 0
-2956 -2957 0
-2956 -2958 0
-2956 -2959 0
-2956 -2960 0
-2957 -2958 0
-2957 -2959 0
-2957 -2960 0
-2958 -2959 0
-2958 -2960 0
-2959 -2960 0
2961 2962 2963 2964 2965 0
-2961 -2962 0
-2961 -2963 0
-2961 -2964 0
-2961 -2965 0
-2962 -2963 0
-2962 -2964 0
-2962 -2965 0
-2963 -2964 0
-2963 -2965 0
-2964 -2965 0
2966 2967 2968 2969 2970 0
-2966 -2967 0
-2966 -2968 0
-2966 -2969 0
-2966 -2970 0
-2967 -2968 0
-2967 -2969 0
-2967 -2970 0
-2968 -2969 0
-2968 -2970 0
-2969 -2970 0
2971 2972 2973 2974 2975 0
-2971 -2972 0
-2971 -2973 0
-2971 -2974 0
-2971 -2975 0
-2972 -2973 0
-2972 -2974 0
-2972 -2975 0
-2973 -2974 0
-2973 -2975 0
-2974 -2975 0
2976 2977 2978 2979 2980 0
-2976 -2977 0
-2976 -2978 0
-2976 -2979 0
-2976 -2980 0
-2977 -2978 0
-2977 -2979 0
-2977 -2980 0
-2978 -2979 0
-2978 -2980 0
-2979 -2980 0
2981 2982 2983 2984 2985 0
-2981 -2982 0
-2981 -2983 0
-2981 -2984 0
-2981 -2985 0
-2982 -2983 0
-2982 -2984 0
-2982 -2985 0
-2983 -2984 0
-2983 -2985 0
-2984 -2985 0
2986 2987 2988 2989 2990 0
-2986 -2987 0
-2986 -2988 0
-2986 -2989 0
-2986 -2990 0
-2987 -2988 0
-2987 -2989 0
-2987 -2990 0
-2988 -2989 0
-2988 -2990 0
-2989 -2990 0
2991 2992 2993 2994 2995 0
-2991 -2992 0
-2991 -2993 0
-2991 -2994 0
-2991 -2995 0
-2992 -2993 0
-2992 -2994 0
-2992 -2995 0
-2993 -2994 0
-2993 -2995 0
-2994 -2995 0
2996 2997 2998 2999 3000 0
-2996 -2997 0
-2996 -2998 0
-2996 -2999 0
-2996 -3000 0
-2997 -2998 0
-2997 -2999 0
-2997 -3000 0
-2998 -2999 0
-2998 -3000 0
-2999 -3000 0
3001 3002 3003 3004 3005 0
-3001 -3002 0
-3001 -3003 0
-3001 -3004 0
-3001 -3005 0
-3002 -3003 0
-3002 -3004 0
-3002 -3005 0
-3003 -3004 0
-3003 -3005 0
-3004 -3005 0
3006 3007 3008 3009 3010 0
-3006 -3007 0
-3006 -3008 0
-3006 -3009 0
-3006 -3010 0
-3007 -3008 0
-3007 -3009 0
-3007 -3010 0
-3008 -3009 0
-3008 -3010 0
-3009 -3010 0
3011 3012 3013 3014 3015 0
-3011 -3012 0
-3011 -3013 0
-3011 -3014 0
-3011 -3015 0
-3012 -3013 0
-3012 -3014 0
-3012 -3015 0
-3013 -3014 0
-3013 -3015 0
-3014 -3015 0
3016 3017 3018 3019 3020 0
-3016 -3017 0
-3016 -3018 0
-3016 -3019 0
-3016 -3020 0
-3017 -3018 0
-3017 -3019 0
-3017 -3020 0
-3018 -3019 0
-3018 -3020 0
-3019 -3020 0
3021 3022 3023 3024 3025 0
-3021 -3022 0
-3021 -3023 0
-3021 -3024 0
-3021 -3025 0
-3022 -3023 0
-3022 -3024 0
-3022 -3025 0
-3023 -3024 0
-3023 -3025 0
-3024 -3025 0
3026 3027 3028 3029 3030 0
-3026 -3027 0
-3026 -3028 0
-3026 -3029 0
-3026 -3030 0
-3027 -3028 0
-3027 -3029 0
-3027 -3030 0
-3028 -3029 0
-3028 -3030 0
-3029 -3030 0
3031 3032 3033 3034 3035 0
-3031 -3032 0
-3031 -3033 0
-3031 -3034 0
-3031 -3035 0
-3032 -3033 0
-3032 -3034 0
-3032 -3035 0
-3033 -3034 0
-3033 -3035 0
-3034 -3035 0
3036 3037 3038 3039 3040 0
-3036 -3037 0
-3036 -3038 0
-3036 -3039 0
-3036 -3040 0
-3037 -3038 0
-3037 -3039 0
-3037 -3040 0
-3038 -3039 0
-3038 -3040 0
-3039 -3040 0
3041 3042 3043 3044 3045 0
-3041 -3042 0
-3041 -3043 0
-3041 -3044 0
-3041 -3045 0
-3042 -3043 0
-3042 -3044 0
-3042 -3045 0
-3043 -3044 0
-3043 -3045 0
-3044 -3045 0
3046 3047 3048 3049 3050 0
-3046 -3047 0
-3046 -3048 0
-3046 -3049 0
-3046 -3050 0
-3047 -3048 0
-3047 -3049 0
-3047 -3050 0
-3048 -3049 0
-3048 -3050 0
-3049 -3050 0
3051 3052 3053 3054 3055 0
-3051 -3052 0
-3051 -3053 0
-3051 -3054 0
-3051 -3055 0
-3052 -3053 0
-3052 -3054 0
-3052 -3055 0
-3053 -3054 0
-3053 -3055 0
-3054 -3055 0
3056 3057 3058 3059 3060 0
-3056 -3057 0
-3056 -3058 0
-3056 -3059 0
-3056 -3060 0
-3057 -3058 0
-3057 -3059 0
-3057 -3060 0
-3058 -3059 0
-3058 -3060 0
-3059 -3060 0
3061 3062 3063 3064 3065 0
-3061 -3062 0
-3061 -3063 0
-3061 -3064 0
-3061 -3065 0
-3062 -3063 0
-3062 -3064 0
-3062 -3065 0
-3063 -3064 0
-3063 -3065 0
-3064 -3065 0
3066 3067 3068 3069 3070 0
-3066 -3067 0
-3066 -3068 0
-3066 -3069 0
-3066 -3070 0
-3067 -3068 0
-3067 -3069 0
-3067 -3070 0
-3068 -3069 0
-3068 -3070 0
-3069 -3070 0
3071 3072 3073 3074 3075 0
-3071 -3072 0
-3071 -3073 0
-3071 -3074 0
-3071 -3075 0
-3072 -3073 0
-3072 -3074 0
-3072 -3075 0
-3073 -3074 0
-3073 -3075 0
-3074 -3075 0
3076 3077 3078 3079 3080 0
-3076 -3077 0
-3076 -3078 0
-3076 -3079 0
-3076 -3080 0
-3077 -3078 0
-3077 -3079 0
-3077 -3080 0
-3078 -3079 0
-3078 -3080 0
-3079 -3080 0
3081 3082 3083 3084 3085 0
-3081 -3082 0
-3081 -3083 0
-3081 -3084 0
-3081 -3085 0
-3082 -3083 0
-3082 -3084 0
-3082 -3085 0
-3083 -3084 0
-3083 -3085 0
-3084 -3085 0
3086 3087 3088 3089 3090 0
-3086 -3087 0
-3086 -3088 0
-3086 -3089 0
-3086 -3090 0
-3087 -3088 0
-3087 -3089 0
-3087 -3090 0
-3088 -3089 0
-3088 -3090 0
-3089 -3090 0
3091 3092 3093 3094 3095 0
-3091 -3092 0
-3091 -3093 0
-3091 -3094 0
-3091 -3095 0
-3092 -3093 0
-3092 -3094 0
-3092 -3095 0
-3093 -3094 0
-3093 -3095 0
-3094 -3095 0
3096 3097 3098 3099 3100 0
-3096 -3097 0
-3096 -3098 0
-3096 -3099 0
-3096 -3100 0
-3097 -3098 0
-3097 -3099 0
-3097 -3100 0
-3098 -3099 0
-3098 -3100 0
-3099 -3100 0
3101 3102 3103 3104 3105 0
-3101 -3102 0
-3101 -3103 0
-3101 -3104 0
-3101 -3105 0
-3102 -3103 0
-3102 -3104 0
-3102 -3105 0
-3103 -3104 0
-3103 -3105 0
-3104 -3105 0
3106 3107 3108 3109 3110 0
-3106 -3107 0
-3106 -3108 0
-3106 -3109 0
-3106 -3110 0
-3107 -3108 0
-3107 -3109 0
-3107 -3110 0
-3108 -3109 0
-3108 -3110 0
-3109 -3110 0
3111 3112 3113 3114 3115 0
-3111 -3112 0
-3111 -3113 0
-3111 -3114 0
-3111 -3115 0
-3112 -3113 0
-3112 -3114 0
-3112 -3115 0
-3113 -3114 0
-3113 -3115 0
-3114 -3115 0
3116 3117 3118 3119 3120 0
-3116 -3117 0
-3116 -3118 0
-3116 -3119 0
-3116 -3120 0
-3117 -3118 0
-3117 -3119 0
-3117 -3120 0
-3118 -3119 0
-3118 -3120 0
-3119 -3120 0
3121 3122 3123 3124 3125 0
-3121 -3122 0
-3121 -3123 0
-3121 -3124 0
-3121 -3125 0
-3122 -3123 0
-3122 -3124 0
-3122 -3125 0
-3123 -3124 0
-3123 -3125 0
-3124 -3125 0
3126 3127 3128 3129 3130 0
-3126 -3127 0
-3126 -3128 0
-3126 -3129 0
-3126 -3130 0
-3127 -3128 0
-3127 -3129 0
-3127 -3130 0
-3128 -3129 0
-3128 -3130 0
-3129 -3130 0
3131 3132 3133 3134 3135 0
-3131 -3132 0
-3131 -3133 0
-3131 -3134 0
-3131 -3135 0
-3132 -3133 0
-3132 -3134 0
-3132 -3135 0
-3133 -3134 0
-3133 -3135 0
-3134 -3135 0
3136 3137 3138 3139 3140 0
-3136 -3137 0
-3136 -3138 0
-3136 -3139 0
-3136 -3140 0
-3137 -3138 0
-3137 -3139 0
-3137 -3140 0
-3138 -3139 0
-3138 -3140 0
-3139 -3140 0
3141 3142 3143 3144 3145 0
-3141 -3142 0
-3141 -3143 0
-3141 -3144 0
-3141 -3145 0
-3142 -3143 0
-3142 -3144 0
-3142 -3145 0
-3143 -3144 0
-3143 -3145 0
-3144 -3145 0
3146 3147 3148 3149 3150 0
-3146 -3147 0
-3146 -3148 0
-3146 -3149 0
-3146 -3150 0
-3147 -3148 0
-3147 -3149 0
-3147 -3150 0
-3148 -3149 0
-3148 -3150 0
-3149 -3150 0
3151 3152 3153 3154 3155 0
-3151 -3152 0
-3151 -3153 0
-3151 -3154 0
-3151 -3155 0
-3152 -3153 0
-3152 -3154 0
-3152 -3155 0
-3153 -3154 0
-3153 -3155 0
-3154 -3155 0
3156 3157 3158 3159 3160 0
-3156 -3157 0
-3156 -3158 0
-3156 -3159 0
-3156 -3160 0
-3157 -3158 0
-3157 -3159 0
-3157 -3160 0
-3158 -3159 0
-3158 -3160 0
-3159 -3160 0
3161 3162 3163 3164 3165 0
-3161 -3162 0
-3161 -3163 0
-3161 -3164 0
-3161 -3165 0
-3162 -3163 0
-3162 -3164 0
-3162 -3165 0
-3163 -3164 0
-3163 -3165 0
-3164 -3165 0
3166 3167 3168 3169 3170 0
-3166 -3167 0
-3166 -3168 0
-3166 -3169 0
-3166 -3170 0
-3167 -3168 0
-3167 -3169 0
-3167 -3170 0
-3168 -3169 0
-3168 -3170 0
-3169 -3170 0
3171 3172 3173 3174 3175 0
-3171 -3172 0
-3171 -3173 0
-3171 -3174 0
-3171 -3175 0
-3172 -3173 0
-3172 -3174 0
-3172 -3175 0
-3173 -3174 0
-3173 -3175 0
-3174 -3175 0
3176 3177 3178 3179 3180 0
-3176 -3177 0
-3176 -3178 0
-3176 -3179 0
-3176 -3180 0
-3177 -3178 0
-3177 -3179 0
-3177 -3180 0
-3178 -3179 0
-3178 -3180 0
-3179 -3180 0
3181 3182 3183 3184 3185 0
-3181 -3182 0
-3181 -3183 0
-3181 -3184 0
-3181 -3185 0
-3182 -3183 0
-3182 -3184 0
-3182 -3185 0
-3183 -3184 0
-3183 -3185 0
-3184 -3185 0
3186 3187 3188 3189 3190 0
-3186 -3187 0
-3186 -3188 0
-3186 -3189 0
-3186 -3190 0
-3187 -3188 0
-3187 -3189 0
-3187 -3190 0
-3188 -3189 0
-3188 -3190 0
-3189 -3190 0
3191 3192 3193 3194 3195 0
-3191 -3192 0
-3191 -3193 0
-3191 -3194 0
-3191 -3195 0
-3192 -3193 0
-3192 -3194 0
-3192 -3195 0
-3193 -3194 0
-3193 -3195 0
-3194 -3195 0
3196 3197 3198 3199 3200 0
-3196 -3197 0
-3196 -3198 0
-3196 -3199 0
-3196 -3200 0
-3197 -3198 0
-3197 -3199 0
-3197 -3200 0
-3198 -3199 0
-3198 -3200 0
-3199 -3200 0
3201 3202 3203 3204 3205 0
-3201 -3202 0
-3201 -3203 0
-3201 -3204 0
-3201 -3205 0
-3202 -3203 0
-3202 -3204 0
-3202 -3205 0
-3203 -3204 0
-3203 -3205 0
-3204 -3205 0
3206 3207 3208 3209 3210 0
-3206 -3207 0
-3206 -3208 0
-3206 -3209 0
-3206 -3210 0
-3207 -3208 0
-3207 -3209 0
-3207 -3210 0
-3208 -3209 0
-3208 -3210 0
-3209 -3210 0
3211 3212 3213 3214 3215 0
-3211 -3212 0
-3211 -3213 0
-3211 -3214 0
-3211 -3215 0
-3212 -3213 0
-3212 -3214 0
-3212 -3215 0
-3213 -3214 0
-3213 -3215 0
-3214 -3215 0
3216 3217 3218 3219 3220 0
-3216 -3217 0
-3216 -3218 0
-3216 -3219 0
-3216 -3220 0
-3217 -3218 0
-3217 -3219 0
-3217 -3220 0
-3218 -3219 0
-3218 -3220 0
-3219 -3220 0
3221 3222 3223 3224 3225 0
-3221 -3222 0
-3221 -3223 0
-3221 -3224 0
-3221 -3225 0
-3222 -3223 0
-3222 -3224 0
-3222 -3225 0
-3223 -3224 0
-3223 -3225 0
-3224 -3225 0
3226 3227 3228 3229 3230 0
-3226 -3227 0
-3226 -3228 0
-3226 -3229 0
-3226 -3230 0
-3227 -3228 0
-3227 -3229 0
-3227 -3230 0
-3228 -3229 0
-3228 -3230 0
-3229 -3230 0
3231 3232 3233 3234 3235 0
-3231 -3232 0
-3231 -3233 0
-3231 -3234 0
-3231 -3235 0
-3232 -3233 0
-3232 -3234 0
-3232 -3235 0
-3233 -3234 0
-3233 -3235 0
-3234 -3235 0
3236 3237 3238 3239 3240 0
-3236 -3237 0
-3236 -3238 0
-3236 -3239 0
-3236 -3240 0
-3237 -3238 0
-3237 -3239 0
-3237 -3240 0
-3238 -3239 0
-3238 -3240 0
-3239 -3240 0
3241 3242 3243 3244 3245 0
-3241 -3242 0
-3241 -3243 0
-3241 -3244 0
-3241 -3245 0
-3242 -3243 0
-3242 -3244 0
-3242 -3245 0
-3243 -3244 0
-3243 -3245 0
-3244 -3245 0
3246 3247 3248 3249 3250 0
-3246 -3247 0
-3246 -3248 0
-3246 -3249 0
-3246 -3250 0
-3247 -3248 0
-3247 -3249 0
-3247 -3250 0
-3248 -3249 0
-3248 -3250 0
-3249 -3250 0
3251 3252 3253 3254 3255 0
-3251 -3252 0
-3251 -3253 0
-3251 -3254 0
-3251 -3255 0
-3252 -3253 0
-3252 -3254 0
-3252 -3255 0
-3253 -3254 0
-3253 -3255 0
-3254 -3255 0
3256 3257 3258 3259 3260 0
-3256 -3257 0
-3256 -3258 0
-3256 -3259 0
-3256 -3260 0
-3257 -3258 0
-3257 -3259 0
-3257 -3260 0
-3258 -3259 0
-3258 -3260 0
-3259 -3260 0
3261 3262 3263 3264 3265 0
-3261 -3262 0
-3261 -3263 0
-3261 -3264 0
-3261 -3265 0
-3262 -3263 0
-3262 -3264 0
-3262 -3265 0
-3263 -3264 0
-3263 -3265 0
-3264 -3265 0
3266 3267 3268 3269 3270 0
-3266 -3267 0
-3266 -3268 0
-3266 -3269 0
-3266 -3270 0
-3267 -3268 0
-3267 -3269 0
-3267 -3270 0
-3268 -3269 0
-3268 -3270 0
-3269 -3270 0
3271 3272 3273 3274 3275 0
-3271 -3272 0
-3271 -3273 0
-3271 -3274 0
-3271 -3275 0
-3272 -3273 0
-3272 -3274 0
-3272 -3275 0
-3273 -3274 0
-3273 -3275 0
-3274 -3275 0
3276 3277 3278 3279 3280 0
-3276 -3277 0
-3276 -3278 0
-3276 -3279 0
-3276 -3280 0
-3277 -3278 0
-3277 -3279 0
-3277 -3280 0
-3278 -3279 0
-3278 -3280 0
-3279 -3280 0
3281 3282 3283 3284 3285 0
-3281 -3282 0
-3281 -3283 0
-3281 -3284 0
-3281 -3285 0
-3282 -3283 0
-3282 -3284 0
-3282 -3285 0
-3283 -3284 0
-3283 -3285 0
-3284 -3285 0
3286 3287 3288 3289 3290 0
-3286 -3287 0
-3286 -3288 0
-3286 -3289 0
-3286 -3290 0
-3287 -3288 0
-3287 -3289 0
-3287 -3290 0
-3288 -3289 0
-3288 -3290 0
-3289 -3290 0
3291 3292 3293 3294 3295 0
-3291 -3292 0
-3291 -3293 0
-3291 -3294 0
-3291 -3295 0
-3292 -3293 0
-3292 -3294 0
-3292 -3295 0
-3293 -3294 0
-3293 -3295 0
-3294 -3295 0
3296 3297 3298 3299 3300 0
-3296 -3297 0
-3296 -3298 0
-3296 -3299 0
-3296 -3300 0
-3297 -3298 0
-3297 -3299 0
-3297 -3300 0
-3298 -3299 0
-3298 -3300 0
-3299 -3300 0
3301 3302 3303 3304 3305 0
-3301 -3302 0
-3301 -3303 0
-3301 -3304 0
-3301 -3305 0
-3302 -3303 0
-3302 -3304 0
-3302 -3305 0
-3303 -3304 0
-3303 -3305 0
-3304 -3305 0
3306 3307 3308 3309 3310 0
-3306 -3307 0
-3306 -3308 0
-3306 -3309 0
-3306 -3310 0
-3307 -3308 0
-3307 -3309 0
-3307 -3310 0
-3308 -3309 0
-3308 -3310 0
-3309 -3310 0
3311 3312 3313 3314 3315 0
-3311 -3312 0
-3311 -3313 0
-3311 -3314 0
-3311 -3315 0
-3312 -3313 0
-3312 -3314 0
-3312 -3315 0
-3313 -3314 0
-3313 -3315 0
-3314 -3315 0
3316 3317 3318 3319 3320 0
-3316 -3317 0
-3316 -3318 0
-3316 -3319 0
-3316 -3320 0
-3317 -3318 0
-3317 -3319 0
-3317 -3320 0
-3318 -3319 0
-3318 -3320 0
-3319 -3320 0
3321 3322 3323 3324 3325 0
-3321 -3322 0
-3321 -3323 0
-3321 -3324 0
-3321 -3325 0
-3322 -3323 0
-3322 -3324 0
-3322 -3325 0
-3323 -3324 0
-3323 -3325 0
-3324 -3325 0
3326 3327 3328 3329 3330 0
-3326 -3327 0
-3326 -3328 0
-3326 -3329 0
-3326 -3330 0
-3327 -3328 0
-3327 -3329 0
-3327 -3330 0
-3328 -3329 0
-3328 -3330 0
-3329 -3330 0
3331 3332 3333 3334 3335 0
-3331 -3332 0
-3331 -3333 0
-3331 -3334 0
-3331 -3335 0
-3332 -3333 0
-3332 -3334 0
-3332 -3335 0
-3333 -3334 0
-3333 -3335 0
-3334 -3335 0
3336 3337 3338 3339 3340 0
-3336 -3337 0
-3336 -3338 0
-3336 -3339 0
-3336 -3340 0
-3337 -3338 0
-3337 -3339 0
-3337 -3340 0
-3338 -3339 0
-3338 -3340 0
-3339 -3340 0
3341 3342 3343 3344 3345 0
-3341 -3342 0
-3341 -3343 0
-3341 -3344 0
-3341 -3345 0
-3342 -3343 0
-3342 -3344 0
-3342 -3345 0
-3343 -3344 0
-3343 -3345 0
-3344 -3345 0
3346 3347 3348 3349 3350 0
-3346 -3347 0
-3346 -3348 0
-3346 -3349 0
-3346 -3350 0
-3347 -3348 0
-3347 -3349 0
-3347 -3350 0
-3348 -3349 0
-3348 -3350 0
-3349 -3350 0
3351 3352 3353 3354 3355 0
-3351 -3352 0
-3351 -3353 0
-3351 -3354 0
-3351 -3355 0
-3352 -3353 0
-3352 -3354 0
-3352 -3355 0
-3353 -3354 0
-3353 -3355 0
-3354 -3355 0
3356 3357 3358 3359 3360 0
-3356 -3357 0
-3356 -3358 0
-3356 -3359 0
-3356 -3360 0
-3357 -3358 0
-3357 -3359 0
-3357 -3360 0
-3358 -3359 0
-3358 -3360 0
-3359 -3360 0
3361 3362 3363 3364 3365 0
-3361 -3362 0
-3361 -3363 0
-3361 -3364 0
-3361 -3365 0
-3362 -3363 0
-3362 -3364 0
-3362 -3365 0
-3363 -3364 0
-3363 -3365 0
-3364 -3365 0
3366 3367 3368 3369 3370 0
-3366 -3367 0
-3366 -3368 0
-3366 -3369 0
-3366 -3370 0
-3367 -3368 0
-3367 -3369 0
-3367 -3370 0
-3368 -3369 0
-3368 -3370 0
-3369 -3370 0
3371 3372 3373 3374 3375 0
-3371 -3372 0
-3371 -3373 0
-3371 -3374 0
-3371 -3375 0
-3372 -3373 0
-3372 -3374 0
-3372 -3375 0
-3373 -3374 0
-3373 -3375 0
-3374 -3375 0
3376 3377 3378 3379 3380 0
-3376 -3377 0
-3376 -3378 0
-3376 -3379 0
-3376 -3380 0
-3377 -3378 0
-3377 -3379 0
-3377 -3380 0
-3378 -3379 0
-3378 -3380 0
-3379 -3380 0
3381 3382 3383 3384 3385 0
-3381 -3382 0
-3381 -3383 0
-3381 -3384 0
-3381 -3385 0
-3382 -3383 0
-3382 -3384 0
-3382 -3385 0
-3383 -3384 0
-3383 -3385 0
-3384 -3385 0
3386 3387 3388 3389 3390 0
-3386 -3387 0
-3386 -3388 0
-3386 -3389 0
-3386 -3390 0
-3387 -3388 0
-3387 -3389 0
-3387 -3390 0
-3388 -3389 0
-3388 -3390 0
-3389 -3390 0
3391 3392 3393 3394 3395 0
-3391 -3392 0
-3391 -3393 0
-3391 -3394 0
-3391 -3395 0
-3392 -3393 0
-3392 -3394 0
-3392 -3395 0
-3393 -3394 0
-3393 -3395 0
-3394 -3395 0
3396 3397 3398 3399 3400 0
-3396 -3397 0
-3396 -3398 0
-3396 -3399 0
-3396 -3400 0
-3397 -3398 0
-3397 -3399 0
-3397 -3400 0
-3398 -3399 0
-3398 -3400 0
-3399 -3400 0
3401 3402 3403 3404 3405 0
-3401 -3402 0
-3401 -3403 0
-3401 -3404 0
-3401 -3405 0
-3402 -3403 0
-3402 -3404 0
-3402 -3405 0
-3403 -3404 0
-3403 -3405 0
-3404 -3405 0
3406 3407 3408 3409 3410 0
-3406 -3407 0
-3406 -3408 0
-3406 -3409 0
-3406 -3410 0
-3407 -3408 0
-3407 -3409 0
-3407 -3410 0
-3408 -3409 0
-3408 -3410 0
-3409 -3410 0
3411 3412 3413 3414 3415 0
-3411 -3412 0
-3411 -3413 0
-3411 -3414 0
-3411 -3415 0
-3412 -3413 0
-3412 -3414 0
-3412 -3415 0
-3413 -3414 0
-3413 -3415 0
-3414 -3415 0
3416 3417 3418 3419 3420 0
-3416 -3417 0
-3416 -3418 0
-3416 -3419 0
-3416 -3420 0
-3417 -3418 0
-3417 -3419 0
-3417 -3420 0
-3418 -3419 0
-3418 -3420 0
-3419 -3420 0
3421 3422 3423 3424 3425 0
-3421 -3422 0
-3421 -3423 0
-3421 -3424 0
-3421 -3425 0
-3422 -3423 0
-3422 -3424 0
-3422 -3425 0
-3423 -3424 0
-3423 -3425 0
-3424 -3425 0
3426 3427 3428 3429 3430 0
-3426 -3427 0
-3426 -3428 0
-3426 -3429 0
-3426 -3430 0
-3427 -3428 0
-3427 -3429 0
-3427 -3430 0
-3428 -3429 0
-3428 -3430 0
-3429 -3430 0
3431 3432 3433 3434 3435 0
-3431 -3432 0
-3431 -3433 0
-3431 -3434 0
-3431 -3435 0
-3432 -3433 0
-3432 -3434 0
-3432 -3435 0
-3433 -3434 0
-3433 -3435 0
-3434 -3435 0
3436 3437 3438 3439 3440 0
-3436 -3437 0
-3436 -3438 0
-3436 -3439 0
-3436 -3440 0
-3437 -3438 0
-3437 -3439 0
-3437 -3440 0
-3438 -3439 0
-3438 -3440 0
-3439 -3440 0
3441 3442 3443 3444 3445 0
-3441 -3442 0
-3441 -3443 0
-3441 -3444 0
-3441 -3445 0
-3442 -3443 0
-3442 -3444 0
-3442 -3445 0
-3443 -3444 0
-3443 -3445 0
-3444 -3445 0
3446 3447 3448 3449 3450 0
-3446 -3447 0
-3446 -3448 0
-3446 -3449 0
-3446 -3450 0
-3447 -3448 0
-3447 -3449 0
-3447 -3450 0
-3448 -3449 0
-3448 -3450 0
-3449 -3450 0
3451 3452 3453 3454 3455 0
-3451 -3452 0
-3451 -3453 0
-3451 -3454 0
-3451 -3455 0
-3452 -3453 0
-3452 -3454 0
-3452 -3455 0
-3453 -3454 0
-3453 -3455 0
-3454 -3455 0
3456 3457 3458 3459 3460 0
-3456 -3457 0
-3456 -3458 0
-3456 -3459 0
-3456 -3460 0
-3457 -3458 0
-3457 -3459 0
-3457 -3460 0
-3458 -3459 0
-3458 -3460 0
-3459 -3460 0
3461 3462 3463 3464 3465 0
-3461 -3462 0
-3461 -3463 0
-3461 -3464 0
-3461 -3465 0
-3462 -3463 0
-3462 -3464 0
-3462 -3465 0
-3463 -3464 0
-3463 -3465 0
-3464 -3465 0
3466 3467 3468 3469 3470 0
-3466 -3467 0
-3466 -3468 0
-3466 -3469 0
-3466 -3470 0
-3467 -3468 0
-3467 -3469 0
-3467 -3470 0
-3468 -3469 0
-3468 -3470 0
-3469 -3470 0
3471 3472 3473 3474 3475 0
-3471 -3472 0
-3471 -3473 0
-3471 -3474 0
-3471 -3475 0
-3472 -3473 0
-3472 -3474 0
-3472 -3475 0
-3473 -3474 0
-3473 -3475 0
-3474 -3475 0
3476 3477 3478 3479 3480 0
-3476 -3477 0
-3476 -3478 0
-3476 -3479 0
-3476 -3480 0
-3477 -3478 0
-3477 -3479 0
-3477 -3480 0
-3478 -3479 0
-3478 -3480 0
-3479 -3480 0
3481 3482 3483 3484 3485 0
-3481 -3482 0
-3481 -3483 0
-3481 -3484 0
-3481 -3485 0
-3482 -3483 0
-3482 -3484 0
-3482 -3485 0
-3483 -3484 0
-3483 -3485 0
-3484 -3485 0
3486 3487 3488 3489 3490 0
-3486 -3487 0
-3486 -3488 0
-3486 -3489 0
-3486 -3490 0
-3487 -3488 0
-3487 -3489 0
-3487 -3490 0
-3488 -3489 0
-3488 -3490 0
-3489 -3490 0
3491 3492 3493 3494 3495 0
-3491 -3492 0
-3491 -3493 0
-3491 -3494 0
-3491 -3495 0
-3492 -3493 0
-3492 -3494 0
-3492 -3495 0
-3493 -3494 0
-3493 -3495 0
-3494 -3495 0
3496 3497 3498 3499 3500 0
-3496 -3497 0
-3496 -3498 0
-3496 -3499 0
-3496 -3500 0
-3497 -3498 0
-3497 -3499 0
-3497 -3500 0
-3498 -3499 0
-3498 -3500 0
-3499 -3500 0
3501 3502 3503 3504 3505 0
-3501 -3502 0
-3501 -3503 0
-3501 -3504 0
-3501 -3505 0
-3502 -3503 0
-3502 -3504 0
-3502 -3505 0
-3503 -3504 0
-3503 -3505 0
-3504 -3505 0
3506 3507 3508 3509 3510 0
-3506 -3507 0
-3506 -3508 0
-3506 -3509 0
-3506 -3510 0
-3507 -3508 0
-3507 -3509 0
-3507 -3510 0
-3508 -3509 0
-3508 -3510 0
-3509 -3510 0
3511 3512 3513 3514 3515 0
-3511 -3512 0
-3511 -3513 0
-3511 -3514 0
-3511 -3515 0
-3512 -3513 0
-3512 -3514 0
-3512 -3515 0
-3513 -3514 0
-3513 -3515 0
-3514 -3515 0
3516 3517 3518 3519 3520 0
-3516 -3517 0
-3516 -3518 0
-3516 -3519 0
-3516 -3520 0
-3517 -3518 0
-3517 -3519 0
-3517 -3520 0
-3518 -3519 0
-3518 -3520 0
-3519 -3520 0
3521 3522 3523 3524 3525 0
-3521 -3522 0
-3521 -3523 0
-3521 -3524 0
-3521 -3525 0
-3522 -3523 0
-3522 -3524 0
-3522 -3525 0
-3523 -3524 0
-3523 -3525 0
-3524 -3525 0
3526 3527 3528 3529 3530 0
-3526 -3527 0
-3526 -3528 0
-3526 -3529 0
-3526 -3530 0
-3527 -3528 0
-3527 -3529 0
-3527 -3530 0
-3528 -3529 0
-3528 -3530 0
-3529 -3530 0
3531 3532 3533 3534 3535 0
-3531 -3532 0
-3531 -3533 0
-3531 -3534 0
-3531 -3535 0
-3532 -3533 0
-3532 -3534 0
-3532 -3535 0
-3533 -3534 0
-3533 -3535 0
-3534 -3535 0
3536 3537 3538 3539 3540 0
-3536 -3537 0
-3536 -3538 0
-3536 -3539 0
-3536 -3540 0
-3537 -3538 0
-3537 -3539 0
-3537 -3540 0
-3538 -3539 0
-3538 -3540 0
-3539 -3540 0
3541 3542 3543 3544 3545 0
-3541 -3542 0
-3541 -3543 0
-3541 -3544 0
-3541 -3545 0
-3542 -3543 0
-3542 -3544 0
-3542 -3545 0
-3543 -3544 0
-3543 -3545 0
-3544 -3545 0
3546 3547 3548 3549 3550 0
-3546 -3547 0
-3546 -3548 0
-3546 -3549 0
-3546 -3550 0
-3547 -3548 0
-3547 -3549 0
-3547 -3550 0
-3548 -3549 0
-3548 -3550 0
-3549 -3550 0
3551 3552 3553 3554 3555 0
-3551 -3552 0
-3551 -3553 0
-3551 -3554 0
-3551 -3555 0
-3552 -3553 0
-3552 -3554 0
-3552 -3555 0
-3553 -3554 0
-3553 -3555 0
-3554 -3555 0
3556 3557 3558 3559 3560 0
-3556 -3557 0
-3556 -3558 0
-3556 -3559 0
-3556 -3560 0
-3557 -3558 0
-3557 -3559 0
-3557 -3560 0
-3558 -3559 0
-3558 -3560 0
-3559 -3560 0
3561 3562 3563 3564 3565 0
-3561 -3562 0
-3561 -3563 0
-3561 -3564 0
-3561 -3565 0
-3562 -3563 0
-3562 -3564 0
-3562 -3565 0
-3563 -3564 0
-3563 -3565 0
-3564 -3565 0
3566 3567 3568 3569 3570 0
-3566 -3567 0
-3566 -3568 0
-3566 -3569 0
-3566 -3570 0
-3567 -3568 0
-3567 -3569 0
-3567 -3570 0
-3568 -3569 0
-3568 -3570 0
-3569 -3570 0
3571 3572 3573 3574 3575 0
-3571 -3572 0
-3571 -3573 0
-3571 -3574 0
-3571 -3575 0
-3572 -3573 0
-3572 -3574 0
-3572 -3575 0
-3573 -3574 0
-3573 -3575 0
-3574 -3575 0
3576 3577 3578 3579 3580 0
-3576 -3577 0
-3576 -3578 0
-3576 -3579 0
-3576 -3580 0
-3577 -3578 0
-3577 -3579 0
-3577 -3580 0
-3578 -3579 0
-3578 -3580 0
-3579 -3580 0
3581 3582 3583 3584 3585 0
-3581 -3582 0
-3581 -3583 0
-3581 -3584 0
-3581 -3585 0
-3582 -3583 0
-3582 -3584 0
-3582 -3585 0
-3583 -3584 0
-3583 -3585 0
-3584 -3585 0
3586 3587 3588 3589 3590 0
-3586 -3587 0
-3586 -3588 0
-3586 -3589 0
-3586 -3590 0
-3587 -3588 0
-3587 -3589 0
-3587 -3590 0
-3588 -3589 0
-3588 -3590 0
-3589 -3590 0
3591 3592 3593 3594 3595 0
-3591 -3592 0
-3591 -3593 0
-3591 -3594 0
-3591 -3595 0
-3592 -3593 0
-3592 -3594 0
-3592 -3595 0
-3593 -3594 0
-3593 -3595 0
-3594 -3595 0
3596 3597 3598 3599 3600 0
-3596 -3597 0
-3596 -3598 0
-3596 -3599 0
-3596 -3600 0
-3597 -3598 0
-3597 -3599 0
-3597 -3600 0
-3598 -3599 0
-3598 -3600 0
-3599 -3600 0
3601 3602 3603 3604 3605 0
-3601 -3602 0
-3601 -3603 0
-3601 -3604 0
-3601 -3605 0
-3602 -3603 0
-3602 -3604 0
-3602 -3605 0
-3603 -3604 0
-3603 -3605 0
-3604 -3605 0
3606 3607 3608 3609 3610 0
-3606 -3607 0
-3606 -3608 0
-3606 -3609 0
-3606 -3610 0
-3607 -3608 0
-3607 -3609 0
-3607 -3610 0
-3608 -3609 0
-3608 -3610 0
-3609 -3610 0
3611 3612 3613 3614 3615 0
-3611 -3612 0
-3611 -3613 0
-3611 -3614 0
-3611 -3615 0
-3612 -3613 0
-3612 -3614 0
-3612 -3615 0
-3613 -3614 0
-3613 -3615 0
-3614 -3615 0
3616 3617 3618 3619 3620 0
-3616 -3617 0
-3616 -3618 0
-3616 -3619 0
-3616 -3620 0
-3617 -3618 0
-3617 -3619 0
-3617 -3620 0
-3618 -3619 0
-3618 -3620 0
-3619 -3620 0
3621 3622 3623 3624 3625 0
-3621 -3622 0
-3621 -3623 0
-3621 -3624 0
-3621 -3625 0
-3622 -3623 0
-3622 -3624 0
-3622 -3625 0
-3623 -3624 0
-3623 -3625 0
-3624 -3625 0
3626 3627 3628 3629 3630 0
-3626 -3627 0
-3626 -3628 0
-3626 -3629 0
-3626 -3630 0
-3627 -3628 0
-3627 -3629 0
-3627 -3630 0
-3628 -3629 0
-3628 -3630 0
-3629 -3630 0
3631 3632 3633 3634 3635 0
-3631 -3632 0
-3631 -3633 0
-3631 -3634 0
-3631 -3635 0
-3632 -3633 0
-3632 -3634 0
-3632 -3635 0
-3633 -3634 0
-3633 -3635 0
-3634 -3635 0
3636 3637 3638 3639 3640 0
-3636 -3637 0
-3636 -3638 0
-3636 -3639 0
-3636 -3640 0
-3637 -3638 0
-3637 -3639 0
-3637 -3640 0
-3638 -3639 0
-3638 -3640 0
-3639 -3640 0
3641 3642 3643 3644 3645 0
-3641 -3642 0
-3641 -3643 0
-3641 -3644 0
-3641 -3645 0
-3642 -3643 0
-3642 -3644 0
-3642 -3645 0
-3643 -3644 0
-3643 -3645 0
-3644 -3645 0
3646 3647 3648 3649 3650 0
-3646 -3647 0
-3646 -3648 0
-3646 -3649 0
-3646 -3650 0
-3647 -3648 0
-3647 -3649 0
-3647 -3650 0
-3648 -3649 0
-3648 -3650 0
-3649 -3650 0
3651 3652 3653 3654 3655 0
-3651 -3652 0
-3651 -3653 0
-3651 -3654 0
-3651 -3655 0
-3652 -3653 0
-3652 -3654 0
-3652 -3655 0
-3653 -3654 0
-3653 -3655 0
-3654 -3655 0
3656 3657 3658 3659 3660 0
-3656 -3657 0
-3656 -3658 0
-3656 -3659 0
-3656 -3660 0
-3657 -3658 0
-3657 -3659 0
-3657 -3660 0
-3658 -3659 0
-3658 -3660 0
-3659 -3660 0
3661 3662 3663 3664 3665 0
-3661 -3662 0
-3661 -3663 0
-3661 -3664 0
-3661 -3665 0
-3662 -3663 0
-3662 -3664 0
-3662 -3665 0
-3663 -3664 0
-3663 -3665 0
-3664 -3665 0
3666 3667 3668 3669 3670 0
-3666 -3667 0
-3666 -3668 0
-3666 -3669 0
-3666 -3670 0
-3667 -3668 0
-3667 -3669 0
-3667 -3670 0
-3668 -3669 0
-3668 -3670 0
-3669 -3670 0
3671 3672 3673 3674 3675 0
-3671 -3672 0
-3671 -3673 0
-3671 -3674 0
-3671 -3675 0
-3672 -3673 0
-3672 -3674 0
-3672 -3675 0
-3673 -3674 0
-3673 -3675 0
-3674 -3675 0
3676 3677 3678 3679 3680 0
-3676 -3677 0
-3676 -3678 0
-3676 -3679 0
-3676 -3680 0
-3677 -3678 0
-3677 -3679 0
-3677 -3680 0
-3678 -3679 0
-3678 -3680 0
-3679 -3680 0
3681 3682 3683 3684 3685 0
-3681 -3682 0
-3681 -3683 0
-3681 -3684 0
-3681 -3685 0
-3682 -3683 0
-3682 -3684 0
-3682 -3685 0
-3683 -3684 0
-3683 -3685 0
-3684 -3685 0
3686 3687 3688 3689 3690 0
-3686 -3687 0
-3686 -3688 0
-3686 -3689 0
-3686 -3690 0
-3687 -3688 0
-3687 -3689 0
-3687 -3690 0
-3688 -3689 0
-3688 -3690 0
-3689 -3690 0
3691 3692 3693 3694 3695 0
-3691 -3692 0
-3691 -3693 0
-3691 -3694 0
-3691 -3695 0
-3692 -3693 0
-3692 -3694 0
-3692 -3695 0
-3693 -3694 0
-3693 -3695 0
-3694 -3695 0
3696 3697 3698 3699 3700 0
-3696 -3697 0
-3696 -3698 0
-3696 -3699 0
-3696 -3700 0
-3697 -3698 0
-3697 -3699 0
-3697 -3700 0
-3698 -3699 0
-3698 -3700 0
-3699 -3700 0
3701 3702 3703 3704 3705 0
-3701 -3702 0
-3701 -3703 0
-3701 -3704 0
-3701 -3705 0
-3702 -3703 0
-3702 -3704 0
-3702 -3705 0
-3703 -3704 0
-3703 -3705 0
-3704 -3705 0
3706 3707 3708 3709 3710 0
-3706 -3707 0
-3706 -3708 0
-3706 -3709 0
-3706 -3710 0
-3707 -3708 0
-3707 -3709 0
-3707 -3710 0
-3708 -3709 0
-3708 -3710 0
-3709 -3710 0
3711 3712 3713 3714 3715 0
-3711 -3712 0
-3711 -3713 0
-3711 -3714 0
-3711 -3715 0
-3712 -3713 0
-3712 -3714 0
-3712 -3715 0
-3713 -3714 0
-3713 -3715 0
-3714 -3715 0
3716 3717 3718 3719 3720 0
-3716 -3717 0
-3716 -3718 0
-3716 -3719 0
-3716 -3720 0
-3717 -3718 0
-3717 -3719 0
-3717 -3720 0
-3718 -3719 0
-3718 -3720 0
-3719 -3720 0
3721 3722 3723 3724 3725 0
-3721 -3722 0
-3721 -3723 0
-3721 -3724 0
-3721 -3725 0
-3722 -3723 0
-3722 -3724 0
-3722 -3725 0
-3723 -3724 0
-3723 -3725 0
-3724 -3725 0
3726 3727 3728 3729 3730 0
-3726 -3727 0
-3726 -3728 0
-3726 -3729 0
-3726 -3730 0
-3727 -3728 0
-3727 -3729 0
-3727 -3730 0
-3728 -3729 0
-3728 -3730 0
-3729 -3730 0
3731 3732 3733 3734 3735 0
-3731 -3732 0
-3731 -3733 0
-3731 -3734 0
-3731 -3735 0
-3732 -3733 0
-3732 -3734 0
-3732 -3735 0
-3733 -3734 0
-3733 -3735 0
-3734 -3735 0
3736 3737 3738 3739 3740 0
-3736 -3737 0
-3736 -3738 0
-3736 -3739 0
-3736 -3740 0
-3737 -3738 0
-3737 -3739 0
-3737 -3740 0
-3738 -3739 0
-3738 -3740 0
-3739 -3740 0
3741 3742 3743 3744 3745 0
-3741 -3742 0
-3741 -3743 0
-3741 -3744 0
-3741 -3745 0
-3742 -3743 0
-3742 -3744 0
-3742 -3745 0
-3743 -3744 0
-3743 -3745 0
-3744 -3745 0
3746 3747 3748 3749 3750 0
-3746 -3747 0
-3746 -3748 0
-3746 -3749 0
-3746 -3750 0
-3747 -3748 0
-3747 -3749 0
-3747 -3750 0
-3748 -3749 0
-3748 -3750 0
-3749 -3750 0
3751 3752 3753 3754 3755 0
-3751 -3752 0
-3751 -3753 0
-3751 -3754 0
-3751 -3755 0
-3752 -3753 0
-3752 -3754 0
-3752 -3755 0
-3753 -3754 0
-3753 -3755 0
-3754 -3755 0
3756 3757 3758 3759 3760 0
-3756 -3757 0
-3756 -3758 0
-3756 -3759 0
-3756 -3760 0
-3757 -3758 0
-3757 -3759 0
-3757 -3760 0
-3758 -3759 0
-3758 -3760 0
-3759 -3760 0
3761 3762 3763 3764 3765 0
-3761 -3762 0
-3761 -3763 0
-3761 -3764 0
-3761 -3765 0
-3762 -3763 0
-3762 -3764 0
-3762 -3765 0
-3763 -3764 0
-3763 -3765 0
-3764 -3765 0
3766 3767 3768 3769 3770 0
-3766 -3767 0
-3766 -3768 0
-3766 -3769 0
-3766 -3770 0
-3767 -3768 0
-3767 -3769 0
-3767 -3770 0
-3768 -3769 0
-3768 -3770 0
-3769 -3770 0
3771 3772 3773 3774 3775 0
-3771 -3772 0
-3771 -3773 0
-3771 -3774 0
-3771 -3775 0
-3772 -3773 0
-3772 -3774 0
-3772 -3775 0
-3773 -3774 0
-3773 -3775 0
-3774 -3775 0
3776 3777 3778 3779 3780 0
-3776 -3777 0
-3776 -3778 0
-3776 -3779 0
-3776 -3780 0
-3777 -3778 0
-3777 -3779 0
-3777 -3780 0
-3778 -3779 0
-3778 -3780 0
-3779 -3780 0
3781 3782 3783 3784 3785 0
-3781 -3782 0
-3781 -3783 0
-3781 -3784 0
-3781 -3785 0
-3782 -3783 0
-3782 -3784 0
-3782 -3785 0
-3783 -3784 0
-3783 -3785 0
-3784 -3785 0
3786 3787 3788 3789 3790 0
-3786 -3787 0
-3786 -3788 0
-3786 -3789 0
-3786 -3790 0
-3787 -3788 0
-3787 -3789 0
-3787 -3790 0
-3788 -3789 0
-3788 -3790 0
-3789 -3790 0
3791 3792 3793 3794 3795 0
-3791 -3792 0
-3791 -3793 0
-3791 -3794 0
-3791 -3795 0
-3792 -3793 0
-3792 -3794 0
-3792 -3795 0
-3793 -3794 0
-3793 -3795 0
-3794 -3795 0
3796 3797 3798 3799 3800 0
-3796 -3797 0
-3796 -3798 0
-3796 -3799 0
-3796 -3800 0
-3797 -3798 0
-3797 -3799 0
-3797 -3800 0
-3798 -3799 0
-3798 -3800 0
-3799 -3800 0
3801 3802 3803 3804 3805 0
-3801 -3802 0
-3801 -3803 0
-3801 -3804 0
-3801 -3805 0
-3802 -3803 0
-3802 -3804 0
-3802 -3805 0
-3803 -3804 0
-3803 -3805 0
-3804 -3805 0
3806 3807 3808 3809 3810 0
-3806 -3807 0
-3806 -3808 0
-3806 -3809 0
-3806 -3810 0
-3807 -3808 0
-3807 -3809 0
-3807 -3810 0
-3808 -3809 0
-3808 -3810 0
-3809 -3810 0
3811 3812 3813 3814 3815 0
-3811 -3812 0
-3811 -3813 0
-3811 -3814 0
-3811 -3815 0
-3812 -3813 0
-3812 -3814 0
-3812 -3815 0
-3813 -3814 0
-3813 -3815 0
-3814 -3815 0
3816 3817 3818 3819 3820 0
-3816 -3817 0
-3816 -3818 0
-3816 -3819 0
-3816 -3820 0
-3817 -3818 0
-3817 -3819 0
-3817 -3820 0
-3818 -3819 0
-3818 -3820 0
-3819 -3820 0
3821 3822 3823 3824 3825 0
-3821 -3822 0
-3821 -3823 0
-3821 -3824 0
-3821 -3825 0
-3822 -3823 0
-3822 -3824 0
-3822 -3825 0
-3823 -3824 0
-3823 -3825 0
-3824 -3825 0
3826 3827 3828 3829 3830 0
-3826 -3827 0
-3826 -3828 0
-3826 -3829 0
-3826 -3830 0
-3827 -3828 0
-3827 -3829 0
-3827 -3830 0
-3828 -3829 0
-3828 -3830 0
-3829 -3830 0
3831 3832 3833 3834 3835 0
-3831 -3832 0
-3831 -3833 0
-3831 -3834 0
-3831 -3835 0
-3832 -3833 0
-3832 -3834 0
-3832 -3835 0
-3833 -3834 0
-3833 -3835 0
-3834 -3835 0
3836 3837 3838 3839 3840 0
-3836 -3837 0
-3836 -3838 0
-3836 -3839 0
-3836 -3840 0
-3837 -3838 0
-3837 -3839 0
-3837 -3840 0
-3838 -3839 0
-3838 -3840 0
-3839 -3840 0
3841 3842 3843 3844 3845 0
-3841 -3842 0
-3841 -3843 0
-3841 -3844 0
-3841 -3845 0
-3842 -3843 0
-3842 -3844 0
-3842 -3845 0
-3843 -3844 0
-3843 -3845 0
-3844 -3845 0
3846 3847 3848 3849 3850 0
-3846 -3847 0
-3846 -3848 0
-3846 -3849 0
-3846 -3850 0
-3847 -3848 0
-3847 -3849 0
-3847 -3850 0
-3848 -3849 0
-3848 -3850 0
-3849 -3850 0
3851 3852 3853 3854 3855 0
-3851 -3852 0
-3851 -3853 0
-3851 -3854 0
-3851 -3855 0
-3852 -3853 0
-3852 -3854 0
-3852 -3855 0
-3853 -3854 0
-3853 -3855 0
-3854 -3855 0
3856 3857 3858 3859 3860 0
-3856 -3857 0
-3856 -3858 0
-3856 -3859 0
-3856 -3860 0
-3857 -3858 0
-3857 -3859 0
-3857 -3860 0
-3858 -3859 0
-3858 -3860 0
-3859 -3860 0
3861 3862 3863 3864 3865 0
-3861 -3862 0
-3861 -3863 0
-3861 -3864 0
-3861 -3865 0
-3862 -3863 0
-3862 -3864 0
-3862 -3865 0
-3863 -3864 0
-3863 -3865 0
-3864 -3865 0
3866 3867 3868 3869 3870 0
-3866 -3867 0
-3866 -3868 0
-3866 -3869 0
-3866 -3870 0
-3867 -3868 0
-3867 -3869 0
-3867 -3870 0
-3868 -3869 0
-3868 -3870 0
-3869 -3870 0
3871 3872 3873 3874 3875 0
-3871 -3872 0
-3871 -3873 0
-3871 -3874 0
-3871 -3875 0
-3872 -3873 0
-3872 -3874 0
-3872 -3875 0
-3873 -3874 0
-3873 -3875 0
-3874 -3875 0
3876 3877 3878 3879 3880 0
-3876 -3877 0
-3876 -3878 0
-3876 -3879 0
-3876 -3880 0
-3877 -3878 0
-3877 -3879 0
-3877 -3880 0
-3878 -3879 0
-3878 -3880 0
-3879 -3880 0
3881 3882 3883 3884 3885 0
-3881 -3882 0
-3881 -3883 0
-3881 -3884 0
-3881 -3885 0
-3882 -3883 0
-3882 -3884 0
-3882 -3885 0
-3883 -3884 0
-3883 -3885 0
-3884 -3885 0
3886 3887 3888 3889 3890 0
-3886 -3887 0
-3886 -3888 0
-3886 -3889 0
-3886 -3890 0
-3887 -3888 0
-3887 -3889 0
-3887 -3890 0
-3888 -3889 0
-3888 -3890 0
-3889 -3890 0
3891 3892 3893 3894 3895 0
-3891 -3892 0
-3891 -3893 0
-3891 -3894 0
-3891 -3895 0
-3892 -3893 0
-3892 -3894 0
-3892 -3895 0
-3893 -3894 0
-3893 -3895 0
-3894 -3895 0
3896 3897 3898 3899 3900 0
-3896 -3897 0
-3896 -3898 0
-3896 -3899 0
-3896 -3900 0
-3897 -3898 0
-3897 -3899 0
-3897 -3900 0
-3898 -3899 0
-3898 -3900 0
-3899 -3900 0
3901 3902 3903 3904 3905 0
-3901 -3902 0
-3901 -3903 0
-3901 -3904 0
-3901 -3905 0
-3902 -3903 0
-3902 -3904 0
-3902 -3905 0
-3903 -3904 0
-3903 -3905 0
-3904 -3905 0
3906 3907 3908 3909 3910 0
-3906 -3907 0
-3906 -3908 0
-3906 -3909 0
-3906 -3910 0
-3907 -3908 0
-3907 -3909 0
-3907 -3910 0
-3908 -3909 0
-3908 -3910 0
-3909 -3910 0
3911 3912 3913 3914 3915 0
-3911 -3912 0
-3911 -3913 0
-3911 -3914 0
-3911 -3915 0
-3912 -3913 0
-3912 -3914 0
-3912 -3915 0
-3913 -3914 0
-3913 -3915 0
-3914 -3915 0
3916 3917 3918 3919 3920 0
-3916 -3917 0
-3916 -3918 0
-3916 -3919 0
-3916 -3920 0
-3917 -3918 0
-3917 -3919 0
-3917 -3920 0
-3918 -3919 0
-3918 -3920 0
-3919 -3920 0
3921 3922 3923 3924 3925 0
-3921 -3922 0
-3921 -3923 0
-3921 -3924 0
-3921 -3925 0
-3922 -3923 0
-3922 -3924 0
-3922 -3925 0
-3923 -3924 0
-3923 -3925 0
-3924 -3925 0
3926 3927 3928 3929 3930 0
-3926 -3927 0
-3926 -3928 0
-3926 -3929 0
-3926 -3930 0
-3927 -3928 0
-3927 -3929 0
-3927 -3930 0
-3928 -3929 0
-3928 -3930 0
-3929 -3930 0
3931 3932 3933 3934 3935 0
-3931 -3932 0
-3931 -3933 0
-3931 -3934 0
-3931 -3935 0
-3932 -3933 0
-3932 -3934 0
-3932 -3935 0
-3933 -3934 0
-3933 -3935 0
-3934 -3935 0
3936 3937 3938 3939 3940 0
-3936 -3937 0
-3936 -3938 0
-3936 -3939 0
-3936 -3940 0
-3937 -3938 0
-3937 -3939 0
-3937 -3940 0
-3938 -3939 0
-3938 -3940 0
-3939 -3940 0
3941 3942 3943 3944 3945 0
-3941 -3942 0
-3941 -3943 0
-3941 -3944 0
-3941 -3945 0
-3942 -3943 0
-3942 -3944 0
-3942 -3945 0
-3943 -3944 0
-3943 -3945 0
-3944 -3945 0
3946 3947 3948 3949 3950 0
-3946 -3947 0
-3946 -3948 0
-3946 -3949 0
-3946 -3950 0
-3947 -3948 0
-3947 -3949 0
-3947 -3950 0
-3948 -3949 0
-3948 -3950 0
-3949 -3950 0
3951 3952 3953 3954 3955 0
-3951 -3952 0
-3951 -3953 0
-3951 -3954 0
-3951 -3955 0
-3952 -3953 0
-3952 -3954 0
-3952 -3955 0
-3953 -3954 0
-3953 -3955 0
-3954 -3955 0
3956 3957 3958 3959 3960 0
-3956 -3957 0
-3956 -3958 0
-3956 -3959 0
-3956 -3960 0
-3957 -3958 0
-3957 -3959 0
-3957 -3960 0
-3958 -3959 0
-3958 -3960 0
-3959 -3960 0
3961 3962 3963 3964 3965 0
-3961 -3962 0
-3961 -3963 0
-3961 -3964 0
-3961 -3965 0
-3962 -3963 0
-3962 -3964 0
-3962 -3965 0
-3963 -3964 0
-3963 -3965 0
-3964 -3965 0
3966 3967 3968 3969 3970 0
-3966 -3967 0
-3966 -3968 0
-3966 -3969 0
-3966 -3970 0
-3967 -3968 0
-3967 -3969 0
-3967 -3970 0
-3968 -3969 0
-3968 -3970 0
-3969 -3970 0
3971 3972 3973 3974 3975 0
-3971 -3972 0
-3971 -3973 0
-3971 -3974 0
-3971 -3975 0
-3972 -3973 0
-3972 -3974 0
-3972 -3975 0
-3973 -3974 0
-3973 -3975 0
-3974 -3975 0
3976 3977 3978 3979 3980 0
-3976 -3977 0
-3976 -3978 0
-3976 -3979 0
-3976 -3980 0
-3977 -3978 0
-3977 -3979 0
-3977 -3980 0
-3978 -3979 0
-3978 -3980 0
-3979 -3980 0
3981 3982 3983 3984 3985 0
-3981 -3982 0
-3981 -3983 0
-3981 -3984 0
-3981 -3985 0
-3982 -3983 0
-3982 -3984 0
-3982 -3985 0
-3983 -3984 0
-3983 -3985 0
-3984 -3985 0
3986 3987 3988 3989 3990 0
-3986 -3987 0
-3986 -3988 0
-3986 -3989 0
-3986 -3990 0
-3987 -3988 0
-3987 -3989 0
-3987 -3990 0
-3988 -3989 0
-3988 -3990 0
-3989 -3990 0
3991 3992 3993 3994 3995 0
-3991 -3992 0
-3991 -3993 0
-3991 -3994 0
-3991 -3995 0
-3992 -3993 0
-3992 -3994 0
-3992 -3995 0
-3993 -3994 0
-3993 -3995 0
-3994 -3995 0
3996 3997 3998 3999 4000 0
-3996 -3997 0
-3996 -3998 0
-3996 -3999 0
-3996 -4000 0
-3997 -3998 0
-3997 -3999 0
-3997 -4000 0
-3998 -3999 0
-3998 -4000 0
-3999 -4000 0
4001 4002 4003 4004 4005 0
-4001 -4002 0
-4001 -4003 0
-4001 -4004 0
-4001 -4005 0
-4002 -4003 0
-4002 -4004 0
-4002 -4005 0
-4003 -4004 0
-4003 -4005 0
-4004 -4005 0
4006 4007 4008 4009 4010 0
-4006 -4007 0
-4006 -4008 0
-4006 -4009 0
-4006 -4010 0
-4007 -4008 0
-4007 -4009 0
-4007 -4010 0
-4008 -4009 0
-4008 -4010 0
-4009 -4010 0
4011 4012 4013 4014 4015 0
-4011 -4012 0
-4011 -4013 0
-4011 -4014 0
-4011 -4015 0
-4012 -4013 0
-4012 -4014 0
-4012 -4015 0
-4013 -4014 0
-4013 -4015 0
-4014 -4015 0
4016 4017 4018 4019 4020 0
-4016 -4017 0
-4016 -4018 0
-4016 -4019 0
-4016 -4020 0
-4017 -4018 0
-4017 -4019 0
-4017 -4020 0
-4018 -4019 0
-4018 -4020 0
-4019 -4020 0
4021 4022 4023 4024 4025 0
-4021 -4022 0
-4021 -4023 0
-4021 -4024 0
-4021 -4025 0
-4022 -4023 0
-4022 -4024 0
-4022 -4025 0
-4023 -4024 0
-4023 -4025 0
-4024 -4025 0
4026 4027 4028 4029 4030 0
-4026 -4027 0
-4026 -4028 0
-4026 -4029 0
-4026 -4030 0
-4027 -4028 0
-4027 -4029 0
-4027 -4030 0
-4028 -4029 0
-4028 -4030 0
-4029 -4030 0
4031 4032 4033 4034 4035 0
-4031 -4032 0
-4031 -4033 0
-4031 -4034 0
-4031 -4035 0
-4032 -4033 0
-4032 -4034 0
-4032 -4035 0
-4033 -4034 0
-4033 -4035 0
-4034 -4035 0
4036 4037 4038 4039 4040 0
-4036 -4037 0
-4036 -4038 0
-4036 -4039 0
-4036 -4040 0
-4037 -4038 0
-4037 -4039 0
-4037 -4040 0
-4038 -4039 0
-4038 -4040 0
-4039 -4040 0
4041 4042 4043 4044 4045 0
-4041 -4042 0
-4041 -4043 0
-4041 -4044 0
-4041 -4045 0
-4042 -4043 0
-4042 -4044 0
-4042 -4045 0
-4043 -4044 0
-4043 -4045 0
-4044 -4045 0
4046 4047 4048 4049 4050 0
-4046 -4047 0
-4046 -4048 0
-4046 -4049 0
-4046 -4050 0
-4047 -4048 0
-4047 -4049 0
-4047 -4050 0
-4048 -4049 0
-4048 -4050 0
-4049 -4050 0
4051 4052 4053 4054 4055 0
-4051 -4052 0
-4051 -4053 0
-4051 -4054 0
-4051 -4055 0
-4052 -4053 0
-4052 -4054 0
-4052 -4055 0
-4053 -4054 0
-4053 -4055 0
-4054 -4055 0
4056 4057 4058 4059 4060 0
-4056 -4057 0
-4056 -4058 0
-4056 -4059 0
-4056 -4060 0
-4057 -4058 0
-4057 -4059 0
-4057 -4060 0
-4058 -4059 0
-4058 -4060 0
-4059 -4060 0
4061 4062 4063 4064 4065 0
-4061 -4062 0
-4061 -4063 0
-4061 -4064 0
-4061 -4065 0
-4062 -4063 0
-4062 -4064 0
-4062 -4065 0
-4063 -4064 0
-4063 -4065 0
-4064 -4065 0
4066 4067 4068 4069 4070 0
-4066 -4067 0
-4066 -4068 0
-4066 -4069 0
-4066 -4070 0
-4067 -4068 0
-4067 -4069 0
-4067 -4070 0
-4068 -4069 0
-4068 -4070 0
-4069 -4070 0
4071 4072 4073 4074 4075 0
-4071 -4072 0
-4071 -4073 0
-4071 -4074 0
-4071 -4075 0
-4072 -4073 0
-4072 -4074 0
-4072 -4075 0
-4073 -4074 0
-4073 -4075 0
-4074 -4075 0
4076 4077 4078 4079 4080 0
-4076 -4077 0
-4076 -4078 0
-4076 -4079 0
-4076 -4080 0
-4077 -4078 0
-4077 -4079 0
-4077 -4080 0
-4078 -4079 0
-4078 -4080 0
-4079 -4080 0
4081 4082 4083 4084 4085 0
-4081 -4082 0
-4081 -4083 0
-4081 -4084 0
-4081 -4085 0
-4082 -4083 0
-4082 -4084 0
-4082 -4085 0
-4083 -4084 0
-4083 -4085 0
-4084 -4085 0
4086 4087 4088 4089 4090 0
-4086 -4087 0
-4086 -4088 0
-4086 -4089 0
-4086 -4090 0
-4087 -4088 0
-4087 -4089 0
-4087 -4090 0
-4088 -4089 0
-4088 -4090 0
-4089 -4090 0
4091 4092 4093 4094 4095 0
-4091 -4092 0
-4091 -4093 0
-4091 -4094 0
-4091 -4095 0
-4092 -4093 0
-4092 -4094 0
-4092 -4095 0
-4093 -4094 0
-4093 -4095 0
-4094 -4095 0
4096 4097 4098 4099 4100 0
-4096 -4097 0
-4096 -4098 0
-4096 -4099 0
-4096 -4100 0
-4097 -4098 0
-4097 -4099 0
-4097 -4100 0
-4098 -4099 0
-4098 -4100 0
-4099 -4100 0
4101 4102 4103 4104 4105 0
-4101 -4102 0
-4101 -4103 0
-4101 -4104 0
-4101 -4105 0
-4102 -4103 0
-4102 -4104 0
-4102 -4105 0
-4103 -4104 0
-4103 -4105 0
-4104 -4105 0
4106 4107 4108 4109 4110 0
-4106 -4107 0
-4106 -4108 0
-4106 -4109 0
-4106 -4110 0
-4107 -4108 0
-4107 -4109 0
-4107 -4110 0
-4108 -4109 0
-4108 -4110 0
-4109 -4110 0
4111 4112 4113 4114 4115 0
-4111 -4112 0
-4111 -4113 0
-4111 -4114 0
-4111 -4115 0
-4112 -4113 0
-4112 -4114 0
-4112 -4115 0
-4113 -4114 0
-4113 -4115 0
-4114 -4115 0
4116 4117 4118 4119 4120 0
-4116 -4117 0
-4116 -4118 0
-4116 -4119 0
-4116 -4120 0
-4117 -4118 0
-4117 -4119 0
-4117 -4120 0
-4118 -4119 0
-4118 -4120 0
-4119 -4120 0
4121 4122 4123 4124 4125 0
-4121 -4122 0
-4121 -4123 0
-4121 -4124 0
-4121 -4125 0
-4122 -4123 0
-4122 -4124 0
-4122 -4125 0
-4123 -4124 0
-4123 -4125 0
-4124 -4125 0
4126 4127 4128 4129 4130 0
-4126 -4127 0
-4126 -4128 0
-4126 -4129 0
-4126 -4130 0
-4127 -4128 0
-4127 -4129 0
-4127 -4130 0
-4128 -4129 0
-4128 -4130 0
-4129 -4130 0
4131 4132 4133 4134 4135 0
-4131 -4132 0
-4131 -4133 0
-4131 -4134 0
-4131 -4135 0
-4132 -4133 0
-4132 -4134 0
-4132 -4135 0
-4133 -4134 0
-4133 -4135 0
-4134 -4135 0
4136 4137 4138 4139 4140 0
-4136 -4137 0
-4136 -4138 0
-4136 -4139 0
-4136 -4140 0
-4137 -4138 0
-4137 -4139 0
-4137 -4140 0
-4138 -4139 0
-4138 -4140 0
-4139 -4140 0
4141 4142 4143 4144 4145 0
-4141 -4142 0
-4141 -4143 0
-4141 -4144 0
-4141 -4145 0
-4142 -4143 0
-4142 -4144 0
-4142 -4145 0
-4143 -4144 0
-4143 -4145 0
-4144 -4145 0
4146 4147 4148 4149 4150 0
-4146 -4147 0
-4146 -4148 0
-4146 -4149 0
-4146 -4150 0
-4147 -4148 0
-4147 -4149 0
-4147 -4150 0
-4148 -4149 0
-4148 -4150 0
-4149 -4150 0
4151 4152 4153 4154 4155 0
-4151 -4152 0
-4151 -4153 0
-4151 -4154 0
-4151 -4155 0
-4152 -4153 0
-4152 -4154 0
-4152 -4155 0
-4153 -4154 0
-4153 -4155 0
-4154 -4155 0
4156 4157 4158 4159 4160 0
-4156 -4157 0
-4156 -4158 0
-4156 -4159 0
-4156 -4160 0
-4157 -4158 0
-4157 -4159 0
-4157 -4160 0
-4158 -4159 0
-4158 -4160 0
-4159 -4160 0
4161 4162 4163 4164 4165 0
-4161 -4162 0
-4161 -4163 0
-4161 -4164 0
-4161 -4165 0
-4162 -4163 0
-4162 -4164 0
-4162 -4165 0
-4163 -4164 0
-4163 -4165 0
-4164 -4165 0
4166 4167 4168 4169 4170 0
-4166 -4167 0
-4166 -4168 0
-4166 -4169 0
-4166 -4170 0
-4167 -4168 0
-4167 -4169 0
-4167 -4170 0
-4168 -4169 0
-4168 -4170 0
-4169 -4170 0
4171 4172 4173 4174 4175 0
-4171 -4172 0
-4171 -4173 0
-4171 -4174 0
-4171 -4175 0
-4172 -4173 0
-4172 -4174 0
-4172 -4175 0
-4173 -4174 0
-4173 -4175 0
-4174 -4175 0
4176 4177 4178 4179 4180 0
-4176 -4177 0
-4176 -4178 0
-4176 -4179 0
-4176 -4180 0
-4177 -4178 0
-4177 -4179 0
-4177 -4180 0
-4178 -4179 0
-4178 -4180 0
-4179 -4180 0
4181 4182 4183 4184 4185 0
-4181 -4182 0
-4181 -4183 0
-4181 -4184 0
-4181 -4185 0
-4182 -4183 0
-4182 -4184 0
-4182 -4185 0
-4183 -4184 0
-4183 -4185 0
-4184 -4185 0
4186 4187 4188 4189 4190 0
-4186 -4187 0
-4186 -4188 0
-4186 -4189 0
-4186 -4190 0
-4187 -4188 0
-4187 -4189 0
-4187 -4190 0
-4188 -4189 0
-4188 -4190 0
-4189 -4190 0
4191 4192 4193 4194 4195 0
-4191 -4192 0
-4191 -4193 0
-4191 -4194 0
-4191 -4195 0
-4192 -4193 0
-4192 -4194 0
-4192 -4195 0
-4193 -4194 0
-4193 -4195 0
-4194 -4195 0
4196 4197 4198 4199 4200 0
-4196 -4197 0
-4196 -4198 0
-4196 -4199 0
-4196 -4200 0
-4197 -4198 0
-4197 -4199 0
-4197 -4200 0
-4198 -4199 0
-4198 -4200 0
-4199 -4200 0
4201 4202 4203 4204 4205 0
-4201 -4202 0
-4201 -4203 0
-4201 -4204 0
-4201 -4205 0
-4202 -4203 0
-4202 -4204 0
-4202 -4205 0
-4203 -4204 0
-4203 -4205 0
-4204 -4205 0
4206 4207 4208 4209 4210 0
-4206 -4207 0
-4206 -4208 0
-4206 -4209 0
-4206 -4210 0
-4207 -4208 0
-4207 -4209 0
-4207 -4210 0
-4208 -4209 0
-4208 -4210 0
-4209 -4210 0
4211 4212 4213 4214 4215 0
-4211 -4212 0
-4211 -4213 0
-4211 -4214 0
-4211 -4215 0
-4212 -4213 0
-4212 -4214 0
-4212 -4215 0
-4213 -4214 0
-4213 -4215 0
-4214 -4215 0
4216 4217 4218 4219 4220 0
-4216 -4217 0
-4216 -4218 0
-4216 -4219 0
-4216 -4220 0
-4217 -4218 0
-4217 -4219 0
-4217 -4220 0
-4218 -4219 0
-4218 -4220 0
-4219 -4220 0
4221 4222 4223 4224 4225 0
-4221 -4222 0
-4221 -4223 0
-4221 -4224 0
-4221 -4225 0
-4222 -4223 0
-4222 -4224 0
-4222 -4225 0
-4223 -4224 0
-4223 -4225 0
-4224 -4225 0
4226 4227 4228 4229 4230 0
-4226 -4227 0
-4226 -4228 0
-4226 -4229 0
-4226 -4230 0
-4227 -4228 0
-4227 -4229 0
-4227 -4230 0
-4228 -4229 0
-4228 -4230 0
-4229 -4230 0
4231 4232 4233 4234 4235 0
-4231 -4232 0
-4231 -4233 0
-4231 -4234 0
-4231 -4235 0
-4232 -4233 0
-4232 -4234 0
-4232 -4235 0
-4233 -4234 0
-4233 -4235 0
-4234 -4235 0
4236 4237 4238 4239 4240 0
-4236 -4237 0
-4236 -4238 0
-4236 -4239 0
-4236 -4240 0
-4237 -4238 0
-4237 -4239 0
-4237 -4240 0
-4238 -4239 0
-4238 -4240 0
-4239 -4240 0
4241 4242 4243 4244 4245 0
-4241 -4242 0
-4241 -4243 0
-4241 -4244 0
-4241 -4245 0
-4242 -4243 0
-4242 -4244 0
-4242 -4245 0
-4243 -4244 0
-4243 -4245 0
-4244 -4245 0
4246 4247 4248 4249 4250 0
-4246 -4247 0
-4246 -4248 0
-4246 -4249 0
-4246 -4250 0
-4247 -4248 0
-4247 -4249 0
-4247 -4250 0
-4248 -4249 0
-4248 -4250 0
-4249 -4250 0
4251 4252 4253 4254 4255 0
-4251 -4252 0
-4251 -4253 0
-4251 -4254 0
-4251 -4255 0
-4252 -4253 0
-4252 -4254 0
-4252 -4255 0
-4253 -4254 0
-4253 -4255 0
-4254 -4255 0
4256 4257 4258 4259 4260 0
-4256 -4257 0
-4256 -4258 0
-4256 -4259 0
-4256 -4260 0
-4257 -4258 0
-4257 -4259 0
-4257 -4260 0
-4258 -4259 0
-4258 -4260 0
-4259 -4260 0
4261 4262 4263 4264 4265 0
-4261 -4262 0
-4261 -4263 0
-4261 -4264 0
-4261 -4265 0
-4262 -4263 0
-4262 -4264 0
-4262 -4265 0
-4263 -4264 0
-4263 -4265 0
-4264 -4265 0
4266 4267 4268 4269 4270 0
-4266 -4267 0
-4266 -4268 0
-4266 -4269 0
-4266 -4270 0
-4267 -4268 0
-4267 -4269 0
-4267 -4270 0
-4268 -4269 0
-4268 -4270 0
-4269 -4270 0
4271 4272 4273 4274 4275 0
-4271 -4272 0
-4271 -4273 0
-4271 -4274 0
-4271 -4275 0
-4272 -4273 0
-4272 -4274 0
-4272 -4275 0
-4273 -4274 0
-4273 -4275 0
-4274 -4275 0
4276 4277 4278 4279 4280 0
-4276 -4277 0
-4276 -4278 0
-4276 -4279 0
-4276 -4280 0
-4277 -4278 0
-4277 -4279 0
-4277 -4280 0
-4278 -4279 0
-4278 -4280 0
-4279 -4280 0
4281 4282 4283 4284 4285 0
-4281 -4282 0
-4281 -4283 0
-4281 -4284 0
-4281 -4285 0
-4282 -4283 0
-4282 -4284 0
-4282 -4285 0
-4283 -4284 0
-4283 -4285 0
-4284 -4285 0
4286 4287 4288 4289 4290 0
-4286 -4287 0
-4286 -4288 0
-4286 -4289 0
-4286 -4290 0
-4287 -4288 0
-4287 -4289 0
-4287 -4290 0
-4288 -4289 0
-4288 -4290 0
-4289 -4290 0
4291 4292 4293 4294 4295 0
-4291 -4292 0
-4291 -4293 0
-4291 -4294 0
-4291 -4295 0
-4292 -4293 0
-4292 -4294 0
-4292 -4295 0
-4293 -4294 0
-4293 -4295 0
-4294 -4295 0
4296 4297 4298 4299 4300 0
-4296 -4297 0
-4296 -4298 0
-4296 -4299 0
-4296 -4300 0
-4297 -4298 0
-4297 -4299 0
-4297 -4300 0
-4298 -4299 0
-4298 -4300 0
-4299 -4300 0
4301 4302 4303 4304 4305 0
-4301 -4302 0
-4301 -4303 0
-4301 -4304 0
-4301 -4305 0
-4302 -4303 0
-4302 -4304 0
-4302 -4305 0
-4303 -4304 0
-4303 -4305 0
-4304 -4305 0
4306 4307 4308 4309 4310 0
-4306 -4307 0
-4306 -4308 0
-4306 -4309 0
-4306 -4310 0
-4307 -4308 0
-4307 -4309 0
-4307 -4310 0
-4308 -4309 0
-4308 -4310 0
-4309 -4310 0
4311 4312 4313 4314 4315 0
-4311 -4312 0
-4311 -4313 0
-4311 -4314 0
-4311 -4315 0
-4312 -4313 0
-4312 -4314 0
-4312 -4315 0
-4313 -4314 0
-4313 -4315 0
-4314 -4315 0
4316 4317 4318 4319 4320 0
-4316 -4317 0
-4316 -4318 0
-4316 -4319 0
-4316 -4320 0
-4317 -4318 0
-4317 -4319 0
-4317 -4320 0
-4318 -4319 0
-4318 -4320 0
-4319 -4320 0
4321 4322 4323 4324 4325 0
-4321 -4322 0
-4321 -4323 0
-4321 -4324 0
-4321 -4325 0
-4322 -4323 0
-4322 -4324 0
-4322 -4325 0
-4323 -4324 0
-4323 -4325 0
-4324 -4325 0
4326 4327 4328 4329 4330 0
-4326 -4327 0
-4326 -4328 0
-4326 -4329 0
-4326 -4330 0
-4327 -4328 0
-4327 -4329 0
-4327 -4330 0
-4328 -4329 0
-4328 -4330 0
-4329 -4330 0
4331 4332 4333 4334 4335 0
-4331 -4332 0
-4331 -4333 0
-4331 -4334 0
-4331 -4335 0
-4332 -4333 0
-4332 -4334 0
-4332 -4335 0
-4333 -4334 0
-4333 -4335 0
-4334 -4335 0
4336 4337 4338 4339 4340 0
-4336 -4337 0
-4336 -4338 0
-4336 -4339 0
-4336 -4340 0
-4337 -4338 0
-4337 -4339 0
-4337 -4340 0
-4338 -4339 0
-4338 -4340 0
-4339 -4340 0
4341 4342 4343 4344 4345 0
-4341 -4342 0
-4341 -4343 0
-4341 -4344 0
-4341 -4345 0
-4342 -4343 0
-4342 -4344 0
-4342 -4345 0
-4343 -4344 0
-4343 -4345 0
-4344 -4345 0
4346 4347 4348 4349 4350 0
-4346 -4347 0
-4346 -4348 0
-4346 -4349 0
-4346 -4350 0
-4347 -4348 0
-4347 -4349 0
-4347 -4350 0
-4348 -4349 0
-4348 -4350 0
-4349 -4350 0
4351 4352 4353 4354 4355 0
-4351 -4352 0
-4351 -4353 0
-4351 -4354 0
-4351 -4355 0
-4352 -4353 0
-4352 -4354 0
-4352 -4355 0
-4353 -4354 0
-4353 -4355 0
-4354 -4355 0
4356 4357 4358 4359 4360 0
-4356 -4357 0
-4356 -4358 0
-4356 -4359 0
-4356 -4360 0
-4357 -4358 0
-4357 -4359 0
-4357 -4360 0
-4358 -4359 0
-4358 -4360 0
-4359 -4360 0
4361 4362 4363 4364 4365 0
-4361 -4362 0
-4361 -4363 0
-4361 -4364 0
-4361 -4365 0
-4362 -4363 0
-4362 -4364 0
-4362 -4365 0
-4363 -4364 0
-4363 -4365 0
-4364 -4365 0
4366 4367 4368 4369 4370 0
-4366 -4367 0
-4366 -4368 0
-4366 -4369 0
-4366 -4370 0
-4367 -4368 0
-4367 -4369 0
-4367 -4370 0
-4368 -4369 0
-4368 -4370 0
-4369 -4370 0
4371 4372 4373 4374 4375 0
-4371 -4372 0
-4371 -4373 0
-4371 -4374 0
-4371 -4375 0
-4372 -4373 0
-4372 -4374 0
-4372 -4375 0
-4373 -4374 0
-4373 -4375 0
-4374 -4375 0
4376 4377 4378 4379 4380 0
-4376 -4377 0
-4376 -4378 0
-4376 -4379 0
-4376 -4380 0
-4377 -4378 0
-4377 -4379 0
-4377 -4380 0
-4378 -4379 0
-4378 -4380 0
-4379 -4380 0
4381 4382 4383 4384 4385 0
-4381 -4382 0
-4381 -4383 0
-4381 -4384 0
-4381 -4385 0
-4382 -4383 0
-4382 -4384 0
-4382 -4385 0
-4383 -4384 0
-4383 -4385 0
-4384 -4385 0
4386 4387 4388 4389 4390 0
-4386 -4387 0
-4386 -4388 0
-4386 -4389 0
-4386 -4390 0
-4387 -4388 0
-4387 -4389 0
-4387 -4390 0
-4388 -4389 0
-4388 -4390 0
-4389 -4390 0
4391 4392 4393 4394 4395 0
-4391 -4392 0
-4391 -4393 0
-4391 -4394 0
-4391 -4395 0
-4392 -4393 0
-4392 -4394 0
-4392 -4395 0
-4393 -4394 0
-4393 -4395 0
-4394 -4395 0
4396 4397 4398 4399 4400 0
-4396 -4397 0
-4396 -4398 0
-4396 -4399 0
-4396 -4400 0
-4397 -4398 0
-4397 -4399 0
-4397 -4400 0
-4398 -4399 0
-4398 -4400 0
-4399 -4400 0
4401 4402 4403 4404 4405 0
-4401 -4402 0
-4401 -4403 0
-4401 -4404 0
-4401 -4405 0
-4402 -4403 0
-4402 -4404 0
-4402 -4405 0
-4403 -4404 0
-4403 -4405 0
-4404 -4405 0
4406 4407 4408 4409 4410 0
-4406 -4407 0
-4406 -4408 0
-4406 -4409 0
-4406 -4410 0
-4407 -4408 0
-4407 -4409 0
-4407 -4410 0
-4408 -4409 0
-4408 -4410 0
-4409 -4410 0
4411 4412 4413 4414 4415 0
-4411 -4412 0
-4411 -4413 0
-4411 -4414 0
-4411 -4415 0
-4412 -4413 0
-4412 -4414 0
-4412 -4415 0
-4413 -4414 0
-4413 -4415 0
-4414 -4415 0
4416 4417 4418 4419 4420 0
-4416 -4417 0
-4416 -4418 0
-4416 -4419 0
-4416 -4420 0
-4417 -4418 0
-4417 -4419 0
-4417 -4420 0
-4418 -4419 0
-4418 -4420 0
-4419 -4420 0
4421 4422 4423 4424 4425 0
-4421 -4422 0
-4421 -4423 0
-4421 -4424 0
-4421 -4425 0
-4422 -4423 0
-4422 -4424 0
-4422 -4425 0
-4423 -4424 0
-4423 -4425 0
-4424 -4425 0
4426 4427 4428 4429 4430 0
-4426 -4427 0
-4426 -4428 0
-4426 -4429 0
-4426 -4430 0
-4427 -4428 0
-4427 -4429 0
-4427 -4430 0
-4428 -4429 0
-4428 -4430 0
-4429 -4430 0
4431 4432 4433 4434 4435 0
-4431 -4432 0
-4431 -4433 0
-4431 -4434 0
-4431 -4435 0
-4432 -4433 0
-4432 -4434 0
-4432 -4435 0
-4433 -4434 0
-4433 -4435 0
-4434 -4435 0
4436 4437 4438 4439 4440 0
-4436 -4437 0
-4436 -4438 0
-4436 -4439 0
-4436 -4440 0
-4437 -4438 0
-4437 -4439 0
-4437 -4440 0
-4438 -4439 0
-4438 -4440 0
-4439 -4440 0
4441 4442 4443 4444 4445 0
-4441 -4442 0
-4441 -4443 0
-4441 -4444 0
-4441 -4445 0
-4442 -4443 0
-4442 -4444 0
-4442 -4445 0
-4443 -4444 0
-4443 -4445 0
-4444 -4445 0
4446 4447 4448 4449 4450 0
-4446 -4447 0
-4446 -4448 0
-4446 -4449 0
-4446 -4450 0
-4447 -4448 0
-4447 -4449 0
-4447 -4450 0
-4448 -4449 0
-4448 -4450 0
-4449 -4450 0
4451 4452 4453 4454 4455 0
-4451 -4452 0
-4451 -4453 0
-4451 -4454 0
-4451 -4455 0
-4452 -4453 0
-4452 -4454 0
-4452 -4455 0
-4453 -4454 0
-4453 -4455 0
-4454 -4455 0
4456 4457 4458 4459 4460 0
-4456 -4457 0
-4456 -4458 0
-4456 -4459 0
-4456 -4460 0
-4457 -4458 0
-4457 -4459 0
-4457 -4460 0
-4458 -4459 0
-4458 -4460 0
-4459 -4460 0
4461 4462 4463 4464 4465 0
-4461 -4462 0
-4461 -4463 0
-4461 -4464 0
-4461 -4465 0
-4462 -4463 0
-4462 -4464 0
-4462 -4465 0
-4463 -4464 0
-4463 -4465 0
-4464 -4465 0
4466 4467 4468 4469 4470 0
-4466 -4467 0
-4466 -4468 0
-4466 -4469 0
-4466 -4470 0
-4467 -4468 0
-4467 -4469 0
-4467 -4470 0
-4468 -4469 0
-4468 -4470 0
-4469 -4470 0
4471 4472 4473 4474 4475 0
-4471 -4472 0
-4471 -4473 0
-4471 -4474 0
-4471 -4475 0
-4472 -4473 0
-4472 -4474 0
-4472 -4475 0
-4473 -4474 0
-4473 -4475 0
-4474 -4475 0
4476 4477 4478 4479 4480 0
-4476 -4477 0
-4476 -4478 0
-4476 -4479 0
-4476 -4480 0
-4477 -4478 0
-4477 -4479 0
-4477 -4480 0
-4478 -4479 0
-4478 -4480 0
-4479 -4480 0
4481 4482 4483 4484 4485 0
-4481 -4482 0
-4481 -4483 0
-4481 -4484 0
-4481 -4485 0
-4482 -4483 0
-4482 -4484 0
-4482 -4485 0
-4483 -4484 0
-4483 -4485 0
-4484 -4485 0
4486 4487 4488 4489 4490 0
-4486 -4487 0
-4486 -4488 0
-4486 -4489 0
-4486 -4490 0
-4487 -4488 0
-4487 -4489 0
-4487 -4490 0
-4488 -4489 0
-4488 -4490 0
-4489 -4490 0
4491 4492 4493 4494 4495 0
-4491 -4492 0
-4491 -4493 0
-4491 -4494 0
-4491 -4495 0
-4492 -4493 0
-4492 -4494 0
-4492 -4495 0
-4493 -4494 0
-4493 -4495 0
-4494 -4495 0
4496 4497 4498 4499 4500 0
-4496 -4497 0
-4496 -4498 0
-4496 -4499 0
-4496 -4500 0
-4497 -4498 0
-4497 -4499 0
-4497 -4500 0
-4498 -4499 0
-4498 -4500 0
-4499 -4500 0
4501 4502 4503 4504 4505 0
-4501 -4502 0
-4501 -4503 0
-4501 -4504 0
-4501 -4505 0
-4502 -4503 0
-4502 -4504 0
-4502 -4505 0
-4503 -4504 0
-4503 -4505 0
-4504 -4505 0
4506 4507 4508 4509 4510 0
-4506 -4507 0
-4506 -4508 0
-4506 -4509 0
-4506 -4510 0
-4507 -4508 0
-4507 -4509 0
-4507 -4510 0
-4508 -4509 0
-4508 -4510 0
-4509 -4510 0
4511 4512 4513 4514 4515 0
-4511 -4512 0
-4511 -4513 0
-4511 -4514 0
-4511 -4515 0
-4512 -4513 0
-4512 -4514 0
-4512 -4515 0
-4513 -4514 0
-4513 -4515 0
-4514 -4515 0
4516 4517 4518 4519 4520 0
-4516 -4517 0
-4516 -4518 0
-4516 -4519 0
-4516 -4520 0
-4517 -4518 0
-4517 -4519 0
-4517 -4520 0
-4518 -4519 0
-4518 -4520 0
-4519 -4520 0
4521 4522 4523 4524 4525 0
-4521 -4522 0
-4521 -4523 0
-4521 -4524 0
-4521 -4525 0
-4522 -4523 0
-4522 -4524 0
-4522 -4525 0
-4523 -4524 0
-4523 -4525 0
-4524 -4525 0
4526 4527 4528 4529 4530 0
-4526 -4527 0
-4526 -4528 0
-4526 -4529 0
-4526 -4530 0
-4527 -4528 0
-4527 -4529 0
-4527 -4530 0
-4528 -4529 0
-4528 -4530 0
-4529 -4530 0
4531 4532 4533 4534 4535 0
-4531 -4532 0
-4531 -4533 0
-4531 -4534 0
-4531 -4535 0
-4532 -4533 0
-4532 -4534 0
-4532 -4535 0
-4533 -4534 0
-4533 -4535 0
-4534 -4535 0
4536 4537 4538 4539 4540 0
-4536 -4537 0
-4536 -4538 0
-4536 -4539 0
-4536 -4540 0
-4537 -4538 0
-4537 -4539 0
-4537 -4540 0
-4538 -4539 0
-4538 -4540 0
-4539 -4540 0
4541 4542 4543 4544 4545 0
-4541 -4542 0
-4541 -4543 0
-4541 -4544 0
-4541 -4545 0
-4542 -4543 0
-4542 -4544 0
-4542 -4545 0
-4543 -4544 0
-4543 -4545 0
-4544 -4545 0
4546 4547 4548 4549 4550 0
-4546 -4547 0
-4546 -4548 0
-4546 -4549 0
-4546 -4550 0
-4547 -4548 0
-4547 -4549 0
-4547 -4550 0
-4548 -4549 0
-4548 -4550 0
-4549 -4550 0
4551 4552 4553 4554 4555 0
-4551 -4552 0
-4551 -4553 0
-4551 -4554 0
-4551 -4555 0
-4552 -4553 0
-4552 -4554 0
-4552 -4555 0
-4553 -4554 0
-4553 -4555 0
-4554 -4555 0
4556 4557 4558 4559 4560 0
-4556 -4557 0
-4556 -4558 0
-4556 -4559 0
-4556 -4560 0
-4557 -4558 0
-4557 -4559 0
-4557 -4560 0
-4558 -4559 0
-4558 -4560 0
-4559 -4560 0
4561 4562 4563 4564 4565 0
-4561 -4562 0
-4561 -4563 0
-4561 -4564 0
-4561 -4565 0
-4562 -4563 0
-4562 -4564 0
-4562 -4565 0
-4563 -4564 0
-4563 -4565 0
-4564 -4565 0
4566 4567 4568 4569 4570 0
-4566 -4567 0
-4566 -4568 0
-4566 -4569 0
-4566 -4570 0
-4567 -4568 0
-4567 -4569 0
-4567 -4570 0
-4568 -4569 0
-4568 -4570 0
-4569 -4570 0
4571 4572 4573 4574 4575 0
-4571 -4572 0
-4571 -4573 0
-4571 -4574 0
-4571 -4575 0
-4572 -4573 0
-4572 -4574 0
-4572 -4575 0
-4573 -4574 0
-4573 -4575 0
-4574 -4575 0
4576 4577 4578 4579 4580 0
-4576 -4577 0
-4576 -4578 0
-4576 -4579 0
-4576 -4580 0
-4577 -4578 0
-4577 -4579 0
-4577 -4580 0
-4578 -4579 0
-4578 -4580 0
-4579 -4580 0
4581 4582 4583 4584 4585 0
-4581 -4582 0
-4581 -4583 0
-4581 -4584 0
-4581 -4585 0
-4582 -4583 0
-4582 -4584 0
-4582 -4585 0
-4583 -4584 0
-4583 -4585 0
-4584 -4585 0
4586 4587 4588 4589 4590 0
-4586 -4587 0
-4586 -4588 0
-4586 -4589 0
-4586 -4590 0
-4587 -4588 0
-4587 -4589 0
-4587 -4590 0
-4588 -4589 0
-4588 -4590 0
-4589 -4590 0
4591 4592 4593 4594 4595 0
-4591 -4592 0
-4591 -4593 0
-4591 -4594 0
-4591 -4595 0
-4592 -4593 0
-4592 -4594 0
-4592 -4595 0
-4593 -4594 0
-4593 -4595 0
-4594 -4595 0
4596 4597 4598 4599 4600 0
-4596 -4597 0
-4596 -4598 0
-4596 -4599 0
-4596 -4600 0
-4597 -4598 0
-4597 -4599 0
-4597 -4600 0
-4598 -4599 0
-4598 -4600 0
-4599 -4600 0
4601 4602 4603 4604 4605 0
-4601 -4602 0
-4601 -4603 0
-4601 -4604 0
-4601 -4605 0
-4602 -4603 0
-4602 -4604 0
-4602 -4605 0
-4603 -4604 0
-4603 -4605 0
-4604 -4605 0
4606 4607 4608 4609 4610 0
-4606 -4607 0
-4606 -4608 0
-4606 -4609 0
-4606 -4610 0
-4607 -4608 0
-4607 -4609 0
-4607 -4610 0
-4608 -4609 0
-4608 -4610 0
-4609 -4610 0
4611 4612 4613 4614 4615 0
-4611 -4612 0
-4611 -4613 0
-4611 -4614 0
-4611 -4615 0
-4612 -4613 0
-4612 -4614 0
-4612 -4615 0
-4613 -4614 0
-4613 -4615 0
-4614 -4615 0
4616 4617 4618 4619 4620 0
-4616 -4617 0
-4616 -4618 0
-4616 -4619 0
-4616 -4620 0
-4617 -4618 0
-4617 -4619 0
-4617 -4620 0
-4618 -4619 0
-4618 -4620 0
-4619 -4620 0
4621 4622 4623 4624 4625 0
-4621 -4622 0
-4621 -4623 0
-4621 -4624 0
-4621 -4625 0
-4622 -4623 0
-4622 -4624 0
-4622 -4625 0
-4623 -4624 0
-4623 -4625 0
-4624 -4625 0
4626 4627 4628 4629 4630 0
-4626 -4627 0
-4626 -4628 0
-4626 -4629 0
-4626 -4630 0
-4627 -4628 0
-4627 -4629 0
-4627 -4630 0
-4628 -4629 0
-4628 -4630 0
-4629 -4630 0
4631 4632 4633 4634 4635 0
-4631 -4632 0
-4631 -4633 0
-4631 -4634 0
-4631 -4635 0
-4632 -4633 0
-4632 -4634 0
-4632 -4635 0
-4633 -4634 0
-4633 -4635 0
-4634 -4635 0
4636 4637 4638 4639 4640 0
-4636 -4637 0
-4636 -4638 0
-4636 -4639 0
-4636 -4640 0
-4637 -4638 0
-4637 -4639 0
-4637 -4640 0
-4638 -4639 0
-4638 -4640 0
-4639 -4640 0
4641 4642 4643 4644 4645 0
-4641 -4642 0
-4641 -4643 0
-4641 -4644 0
-4641 -4645 0
-4642 -4643 0
-4642 -4644 0
-4642 -4645 0
-4643 -4644 0
-4643 -4645 0
-4644 -4645 0
4646 4647 4648 4649 4650 0
-4646 -4647 0
-4646 -4648 0
-4646 -4649 0
-4646 -4650 0
-4647 -4648 0
-4647 -4649 0
-4647 -4650 0
-4648 -4649 0
-4648 -4650 0
-4649 -4650 0
4651 4652 4653 4654 4655 0
-4651 -4652 0
-4651 -4653 0
-4651 -4654 0
-4651 -4655 0
-4652 -4653 0
-4652 -4654 0
-4652 -4655 0
-4653 -4654 0
-4653 -4655 0
-4654 -4655 0
4656 4657 4658 4659 4660 0
-4656 -4657 0
-4656 -4658 0
-4656 -4659 0
-4656 -4660 0
-4657 -4658 0
-4657 -4659 0
-4657 -4660 0
-4658 -4659 0
-4658 -4660 0
-4659 -4660 0
4661 4662 4663 4664 4665 0
-4661 -4662 0
-4661 -4663 0
-4661 -4664 0
-4661 -4665 0
-4662 -4663 0
-4662 -4664 0
-4662 -4665 0
-4663 -4664 0
-4663 -4665 0
-4664 -4665 0
4666 4667 4668 4669 4670 0
-4666 -4667 0
-4666 -4668 0
-4666 -4669 0
-4666 -4670 0
-4667 -4668 0
-4667 -4669 0
-4667 -4670 0
-4668 -4669 0
-4668 -4670 0
-4669 -4670 0
4671 4672 4673 4674 4675 0
-4671 -4672 0
-4671 -4673 0
-4671 -4674 0
-4671 -4675 0
-4672 -4673 0
-4672 -4674 0
-4672 -4675 0
-4673 -4674 0
-4673 -4675 0
-4674 -4675 0
4676 4677 4678 4679 4680 0
-4676 -4677 0
-4676 -4678 0
-4676 -4679 0
-4676 -4680 0
-4677 -4678 0
-4677 -4679 0
-4677 -4680 0
-4678 -4679 0
-4678 -4680 0
-4679 -4680 0
4681 4682 4683 4684 4685 0
-4681 -4682 0
-4681 -4683 0
-4681 -4684 0
-4681 -4685 0
-4682 -4683 0
-4682 -4684 0
-4682 -4685 0
-4683 -4684 0
-4683 -4685 0
-4684 -4685 0
4686 4687 4688 4689 4690 0
-4686 -4687 0
-4686 -4688 0
-4686 -4689 0
-4686 -4690 0
-4687 -4688 0
-4687 -4689 0
-4687 -4690 0
-4688 -4689 0
-4688 -4690 0
-4689 -4690 0
4691 4692 4693 4694 4695 0
-4691 -4692 0
-4691 -4693 0
-4691 -4694 0
-4691 -4695 0
-4692 -4693 0
-4692 -4694 0
-4692 -4695 0
-4693 -4694 0
-4693 -4695 0
-4694 -4695 0
4696 4697 4698 4699 4700 0
-4696 -4697 0
-4696 -4698 0
-4696 -4699 0
-4696 -4700 0
-4697 -4698 0
-4697 -4699 0
-4697 -4700 0
-4698 -4699 0
-4698 -4700 0
-4699 -4700 0
4701 4702 4703 4704 4705 0
-4701 -4702 0
-4701 -4703 0
-4701 -4704 0
-4701 -4705 0
-4702 -4703 0
-4702 -4704 0
-4702 -4705 0
-4703 -4704 0
-4703 -4705 0
-4704 -4705 0
4706 4707 4708 4709 4710 0
-4706 -4707 0
-4706 -4708 0
-4706 -4709 0
-4706 -4710 0
-4707 -4708 0
-4707 -4709 0
-4707 -4710 0
-4708 -4709 0
-4708 -4710 0
-4709 -4710 0
4711 4712 4713 4714 4715 0
-4711 -4712 0
-4711 -4713 0
-4711 -4714 0
-4711 -4715 0
-4712 -4713 0
-4712 -4714 0
-4712 -4715 0
-4713 -4714 0
-4713 -4715 0
-4714 -4715 0
4716 4717 4718 4719 4720 0
-4716 -4717 0
-4716 -4718 0
-4716 -4719 0
-4716 -4720 0
-4717 -4718 0
-4717 -4719 0
-4717 -4720 0
-4718 -4719 0
-4718 -4720 0
-4719 -4720 0
4721 4722 4723 4724 4725 0
-4721 -4722 0
-4721 -4723 0
-4721 -4724 0
-4721 -4725 0
-4722 -4723 0
-4722 -4724 0
-4722 -4725 0
-4723 -4724 0
-4723 -4725 0
-4724 -4725 0
4726 4727 4728 4729 4730 0
-4726 -4727 0
-4726 -4728 0
-4726 -4729 0
-4726 -4730 0
-4727 -4728 0
-4727 -4729 0
-4727 -4730 0
-4728 -4729 0
-4728 -4730 0
-4729 -4730 0
4731 4732 4733 4734 4735 0
-4731 -4732 0
-4731 -4733 0
-4731 -4734 0
-4731 -4735 0
-4732 -4733 0
-4732 -4734 0
-4732 -4735 0
-4733 -4734 0
-4733 -4735 0
-4734 -4735 0
4736 4737 4738 4739 4740 0
-4736 -4737 0
-4736 -4738 0
-4736 -4739 0
-4736 -4740 0
-4737 -4738 0
-4737 -4739 0
-4737 -4740 0
-4738 -4739 0
-4738 -4740 0
-4739 -4740 0
4741 4742 4743 4744 4745 0
-4741 -4742 0
-4741 -4743 0
-4741 -4744 0
-4741 -4745 0
-4742 -4743 0
-4742 -4744 0
-4742 -4745 0
-4743 -4744 0
-4743 -4745 0
-4744 -4745 0
4746 4747 4748 4749 4750 0
-4746 -4747 0
-4746 -4748 0
-4746 -4749 0
-4746 -4750 0
-4747 -4748 0
-4747 -4749 0
-4747 -4750 0
-4748 -4749 0
-4748 -4750 0
-4749 -4750 0
4751 4752 4753 4754 4755 0
-4751 -4752 0
-4751 -4753 0
-4751 -4754 0
-4751 -4755 0
-4752 -4753 0
-4752 -4754 0
-4752 -4755 0
-4753 -4754 0
-4753 -4755 0
-4754 -4755 0
4756 4757 4758 4759 4760 0
-4756 -4757 0
-4756 -4758 0
-4756 -4759 0
-4756 -4760 0
-4757 -4758 0
-4757 -4759 0
-4757 -4760 0
-4758 -4759 0
-4758 -4760 0
-4759 -4760 0
4761 4762 4763 4764 4765 0
-4761 -4762 0
-4761 -4763 0
-4761 -4764 0
-4761 -4765 0
-4762 -4763 0
-4762 -4764 0
-4762 -4765 0
-4763 -4764 0
-4763 -4765 0
-4764 -4765 0
4766 4767 4768 4769 4770 0
-4766 -4767 0
-4766 -4768 0
-4766 -4769 0
-4766 -4770 0
-4767 -4768 0
-4767 -4769 0
-4767 -4770 0
-4768 -4769 0
-4768 -4770 0
-4769 -4770 0
4771 4772 4773 4774 4775 0
-4771 -4772 0
-4771 -4773 0
-4771 -4774 0
-4771 -4775 0
-4772 -4773 0
-4772 -4774 0
-4772 -4775 0
-4773 -4774 0
-4773 -4775 0
-4774 -4775 0
4776 4777 4778 4779 4780 0
-4776 -4777 0
-4776 -4778 0
-4776 -4779 0
-4776 -4780 0
-4777 -4778 0
-4777 -4779 0
-4777 -4780 0
-4778 -4779 0
-4778 -4780 0
-4779 -4780 0
4781 4782 4783 4784 4785 0
-4781 -4782 0
-4781 -4783 0
-4781 -4784 0
-4781 -4785 0
-4782 -4783 0
-4782 -4784 0
-4782 -4785 0
-4783 -4784 0
-4783 -4785 0
-4784 -4785 0
4786 4787 4788 4789 4790 0
-4786 -4787 0
-4786 -4788 0
-4786 -4789 0
-4786 -4790 0
-4787 -4788 0
-4787 -4789 0
-4787 -4790 0
-4788 -4789 0
-4788 -4790 0
-4789 -4790 0
4791 4792 4793 4794 4795 0
-4791 -4792 0
-4791 -4793 0
-4791 -4794 0
-4791 -4795 0
-4792 -4793 0
-4792 -4794 0
-4792 -4795 0
-4793 -4794 0
-4793 -4795 0
-4794 -4795 0
4796 4797 4798 4799 4800 0
-4796 -4797 0
-4796 -4798 0
-4796 -4799 0
-4796 -4800 0
-4797 -4798 0
-4797 -4799 0
-4797 -4800 0
-4798 -4799 0
-4798 -4800 0
-4799 -4800 0
4801 4802 4803 4804 4805 0
-4801 -4802 0
-4801 -4803 0
-4801 -4804 0
-4801 -4805 0
-4802 -4803 0
-4802 -4804 0
-4802 -4805 0
-4803 -4804 0
-4803 -4805 0
-4804 -4805 0
4806 4807 4808 4809 4810 0
-4806 -4807 0
-4806 -4808 0
-4806 -4809 0
-4806 -4810 0
-4807 -4808 0
-4807 -4809 0
-4807 -4810 0
-4808 -4809 0
-4808 -4810 0
-4809 -4810 0
4811 4812 4813 4814 4815 0
-4811 -4812 0
-4811 -4813 0
-4811 -4814 0
-4811 -4815 0
-4812 -4813 0
-4812 -4814 0
-4812 -4815 0
-4813 -4814 0
-4813 -4815 0
-4814 -4815 0
4816 4817 4818 4819 4820 0
-4816 -4817 0
-4816 -4818 0
-4816 -4819 0
-4816 -4820 0
-4817 -4818 0
-4817 -4819 0
-4817 -4820 0
-4818 -4819 0
-4818 -4820 0
-4819 -4820 0
4821 4822 4823 4824 4825 0
-4821 -4822 0
-4821 -4823 0
-4821 -4824 0
-4821 -4825 0
-4822 -4823 0
-4822 -4824 0
-4822 -4825 0
-4823 -4824 0
-4823 -4825 0
-4824 -4825 0
4826 4827 4828 4829 4830 0
-4826 -4827 0
-4826 -4828 0
-4826 -4829 0
-4826 -4830 0
-4827 -4828 0
-4827 -4829 0
-4827 -4830 0
-4828 -4829 0
-4828 -4830 0
-4829 -4830 0
4831 4832 4833 4834 4835 0
-4831 -4832 0
-4831 -4833 0
-4831 -4834 0
-4831 -4835 0
-4832 -4833 0
-4832 -4834 0
-4832 -4835 0
-4833 -4834 0
-4833 -4835 0
-4834 -4835 0
4836 4837 4838 4839 4840 0
-4836 -4837 0
-4836 -4838 0
-4836 -4839 0
-4836 -4840 0
-4837 -4838 0
-4837 -4839 0
-4837 -4840 0
-4838 -4839 0
-4838 -4840 0
-4839 -4840 0
4841 4842 4843 4844 4845 0
-4841 -4842 0
-4841 -4843 0
-4841 -4844 0
-4841 -4845 0
-4842 -4843 0
-4842 -4844 0
-4842 -4845 0
-4843 -4844 0
-4843 -4845 0
-4844 -4845 0
4846 4847 4848 4849 4850 0
-4846 -4847 0
-4846 -4848 0
-4846 -4849 0
-4846 -4850 0
-4847 -4848 0
-4847 -4849 0
-4847 -4850 0
-4848 -4849 0
-4848 -4850 0
-4849 -4850 0
4851 4852 4853 4854 4855 0
-4851 -4852 0
-4851 -4853 0
-4851 -4854 0
-4851 -4855 0
-4852 -4853 0
-4852 -4854 0
-4852 -4855 0
-4853 -4854 0
-4853 -4855 0
-4854 -4855 0
4856 4857 4858 4859 4860 0
-4856 -4857 0
-4856 -4858 0
-4856 -4859 0
-4856 -4860 0
-4857 -4858 0
-4857 -4859 0
-4857 -4860 0
-4858 -4859 0
-4858 -4860 0
-4859 -4860 0
4861 4862 4863 4864 4865 0
-4861 -4862 0
-4861 -4863 0
-4861 -4864 0
-4861 -4865 0
-4862 -4863 0
-4862 -4864 0
-4862 -4865 0
-4863 -4864 0
-4863 -4865 0
-4864 -4865 0
4866 4867 4868 4869 4870 0
-4866 -4867 0
-4866 -4868 0
-4866 -4869 0
-4866 -4870 0
-4867 -4868 0
-4867 -4869 0
-4867 -4870 0
-4868 -4869 0
-4868 -4870 0
-4869 -4870 0
4871 4872 4873 4874 4875 0
-4871 -4872 0
-4871 -4873 0
-4871 -4874 0
-4871 -4875 0
-4872 -4873 0
-4872 -4874 0
-4872 -4875 0
-4873 -4874 0
-4873 -4875 0
-4874 -4875 0
4876 4877 4878 4879 4880 0
-4876 -4877 0
-4876 -4878 0
-4876 -4879 0
-4876 -4880 0
-4877 -4878 0
-4877 -4879 0
-4877 -4880 0
-4878 -4879 0
-4878 -4880 0
-4879 -4880 0
4881 4882 4883 4884 4885 0
-4881 -4882 0
-4881 -4883 0
-4881 -4884 0
-4881 -4885 0
-4882 -4883 0
-4882 -4884 0
-4882 -4885 0
-4883 -4884 0
-4883 -4885 0
-4884 -4885 0
4886 4887 4888 4889 4890 0
-4886 -4887 0
-4886 -4888 0
-4886 -4889 0
-4886 -4890 0
-4887 -4888 0
-4887 -4889 0
-4887 -4890 0
-4888 -4889 0
-4888 -4890 0
-4889 -4890 0
4891 4892 4893 4894 4895 0
-4891 -4892 0
-4891 -4893 0
-4891 -4894 0
-4891 -4895 0
-4892 -4893 0
-4892 -4894 0
-4892 -4895 0
-4893 -4894 0
-4893 -4895 0
-4894 -4895 0
4896 4897 4898 4899 4900 0
-4896 -4897 0
-4896 -4898 0
-4896 -4899 0
-4896 -4900 0
-4897 -4898 0
-4897 -4899 0
-4897 -4900 0
-4898 -4899 0
-4898 -4900 0
-4899 -4900 0
4901 4902 4903 4904 4905 0
-4901 -4902 0
-4901 -4903 0
-4901 -4904 0
-4901 -4905 0
-4902 -4903 0
-4902 -4904 0
-4902 -4905 0
-4903 -4904 0
-4903 -4905 0
-4904 -4905 0
4906 4907 4908 4909 4910 0
-4906 -4907 0
-4906 -4908 0
-4906 -4909 0
-4906 -4910 0
-4907 -4908 0
-4907 -4909 0
-4907 -4910 0
-4908 -4909 0
-4908 -4910 0
-4909 -4910 0
4911 4912 4913 4914 4915 0
-4911 -4912 0
-4911 -4913 0
-4911 -4914 0
-4911 -4915 0
-4912 -4913 0
-4912 -4914 0
-4912 -4915 0
-4913 -4914 0
-4913 -4915 0
-4914 -4915 0
4916 4917 4918 4919 4920 0
-4916 -4917 0
-4916 -4918 0
-4916 -4919 0
-4916 -4920 0
-4917 -4918 0
-4917 -4919 0
-4917 -4920 0
-4918 -4919 0
-4918 -4920 0
-4919 -4920 0
4921 4922 4923 4924 4925 0
-4921 -4922 0
-4921 -4923 0
-4921 -4924 0
-4921 -4925 0
-4922 -4923 0
-4922 -4924 0
-4922 -4925 0
-4923 -4924 0
-4923 -4925 0
-4924 -4925 0
4926 4927 4928 4929 4930 0
-4926 -4927 0
-4926 -4928 0
-4926 -4929 0
-4926 -4930 0
-4927 -4928 0
-4927 -4929 0
-4927 -4930 0
-4928 -4929 0
-4928 -4930 0
-4929 -4930 0
4931 4932 4933 4934 4935 0
-4931 -4932 0
-4931 -4933 0
-4931 -4934 0
-4931 -4935 0
-4932 -4933 0
-4932 -4934 0
-4932 -4935 0
-4933 -4934 0
-4933 -4935 0
-4934 -4935 0
4936 4937 4938 4939 4940 0
-4936 -4937 0
-4936 -4938 0
-4936 -4939 0
-4936 -4940 0
-4937 -4938 0
-4937 -4939 0
-4937 -4940 0
-4938 -4939 0
-4938 -4940 0
-4939 -4940 0
4941 4942 4943 4944 4945 0
-4941 -4942 0
-4941 -4943 0
-4941 -4944 0
-4941 -4945 0
-4942 -4943 0
-4942 -4944 0
-4942 -4945 0
-4943 -4944 0
-4943 -4945 0
-4944 -4945 0
4946 4947 4948 4949 4950 0
-4946 -4947 0
-4946 -4948 0
-4946 -4949 0
-4946 -4950 0
-4947 -4948 0
-4947 -4949 0
-4947 -4950 0
-4948 -4949 0
-4948 -4950 0
-4949 -4950 0
4951 4952 4953 4954 4955 0
-4951 -4952 0
-4951 -4953 0
-4951 -4954 0
-4951 -4955 0
-4952 -4953 0
-4952 -4954 0
-4952 -4955 0
-4953 -4954 0
-4953 -4955 0
-4954 -4955 0
4956 4957 4958 4959 4960 0
-4956 -4957 0
-4956 -4958 0
-4956 -4959 0
-4956 -4960 0
-4957 -4958 0
-4957 -4959 0
-4957 -4960 0
-4958 -4959 0
-4958 -4960 0
-4959 -4960 0
4961 4962 4963 4964 4965 0
-4961 -4962 0
-4961 -4963 0
-4961 -4964 0
-4961 -4965 0
-4962 -4963 0
-4962 -4964 0
-4962 -4965 0
-4963 -4964 0
-4963 -4965 0
-4964 -4965 0
4966 4967 4968 4969 4970 0
-4966 -4967 0
-4966 -4968 0
-4966 -4969 0
-4966 -4970 0
-4967 -4968 0
-4967 -4969 0
-4967 -4970 0
-4968 -4969 0
-4968 -4970 0
-4969 -4970 0
4971 4972 4973 4974 4975 0
-4971 -4972 0
-4971 -4973 0
-4971 -4974 0
-4971 -4975 0
-4972 -4973 0
-4972 -4974 0
-4972 -4975 0
-4973 -4974 0
-4973 -4975 0
-4974 -4975 0
4976 4977 4978 4979 4980 0
-4976 -4977 0
-4976 -4978 0
-4976 -4979 0
-4976 -4980 0
-4977 -4978 0
-4977 -4979 0
-4977 -4980 0
-4978 -4979 0
-4978 -4980 0
-4979 -4980 0
4981 4982 4983 4984 4985 0
-4981 -4982 0
-4981 -4983 0
-4981 -4984 0
-4981 -4985 0
-4982 -4983 0
-4982 -4984 0
-4982 -4985 0
-4983 -4984 0
-4983 -4985 0
-4984 -4985 0
4986 4987 4988 4989 4990 0
-4986 -4987 0
-4986 -4988 0
-4986 -4989 0
-4986 -4990 0
-4987 -4988 0
-4987 -4989 0
-4987 -4990 0
-4988 -4989 0
-4988 -4990 0
-4989 -4990 0
4991 4992 4993 4994 4995 0
-4991 -4992 0
-4991 -4993 0
-4991 -4994 0
-4991 -4995 0
-4992 -4993 0
-4992 -4994 0
-4992 -4995 0
-4993 -4994 0
-4993 -4995 0
-4994 -4995 0
4996 4997 4998 4999 5000 0
-4996 -4997 0
-4996 -4998 0
-4996 -4999 0
-4996 -5000 0
-4997 -4998 0
-4997 -4999 0
-4997 -5000 0
-4998 -4999 0
-4998 -5000 0
-4999 -5000 0
5001 5002 5003 5004 5005 0
-5001 -5002 0
-5001 -5003 0
-5001 -5004 0
-5001 -5005 0
-5002 -5003 0
-5002 -5004 0
-5002 -5005 0
-5003 -5004 0
-5003 -5005 0
-5004 -5005 0
5006 5007 5008 5009 5010 0
-5006 -5007 0
-5006 -5008 0
-5006 -5009 0
-5006 -5010 0
-5007 -5008 0
-5007 -5009 0
-5007 -5010 0
-5008 -5009 0
-5008 -5010 0
-5009 -5010 0
5011 5012 5013 5014 5015 0
-5011 -5012 0
-5011 -5013 0
-5011 -5014 0
-5011 -5015 0
-5012 -5013 0
-5012 -5014 0
-5012 -5015 0
-5013 -5014 0
-5013 -5015 0
-5014 -5015 0
5016 5017 5018 5019 5020 0
-5016 -5017 0
-5016 -5018 0
-5016 -5019 0
-5016 -5020 0
-5017 -5018 0
-5017 -5019 0
-5017 -5020 0
-5018 -5019 0
-5018 -5020 0
-5019 -5020 0
5021 5022 5023 5024 5025 0
-5021 -5022 0
-5021 -5023 0
-5021 -5024 0
-5021 -5025 0
-5022 -5023 0
-5022 -5024 0
-5022 -5025 0
-5023 -5024 0
-5023 -5025 0
-5024 -5025 0
5026 5027 5028 5029 5030 0
-5026 -5027 0
-5026 -5028 0
-5026 -5029 0
-5026 -5030 0
-5027 -5028 0
-5027 -5029 0
-5027 -5030 0
-5028 -5029 0
-5028 -5030 0
-5029 -5030 0
5031 5032 5033 5034 5035 0
-5031 -5032 0
-5031 -5033 0
-5031 -5034 0
-5031 -5035 0
-5032 -5033 0
-5032 -5034 0
-5032 -5035 0
-5033 -5034 0
-5033 -5035 0
-5034 -5035 0
5036 5037 5038 5039 5040 0
-5036 -5037 0
-5036 -5038 0
-5036 -5039 0
-5036 -5040 0
-5037 -5038 0
-5037 -5039 0
-5037 -5040 0
-5038 -5039 0
-5038 -5040 0
-5039 -5040 0
5041 5042 5043 5044 5045 0
-5041 -5042 0
-5041 -5043 0
-5041 -5044 0
-5041 -5045 0
-5042 -5043 0
-5042 -5044 0
-5042 -5045 0
-5043 -5044 0
-5043 -5045 0
-5044 -5045 0
5046 5047 5048 5049 5050 0
-5046 -5047 0
-5046 -5048 0
-5046 -5049 0
-5046 -5050 0
-5047 -5048 0
-5047 -5049 0
-5047 -5050 0
-5048 -5049 0
-5048 -5050 0
-5049 -5050 0
5051 5052 5053 5054 5055 0
-5051 -5052 0
-5051 -5053 0
-5051 -5054 0
-5051 -5055 0
-5052 -5053 0
-5052 -5054 0
-5052 -5055 0
-5053 -5054 0
-5053 -5055 0
-5054 -5055 0
5056 5057 5058 5059 5060 0
-5056 -5057 0
-5056 -5058 0
-5056 -5059 0
-5056 -5060 0
-5057 -5058 0
-5057 -5059 0
-5057 -5060 0
-5058 -5059 0
-5058 -5060 0
-5059 -5060 0
5061 5062 5063 5064 5065 0
-5061 -5062 0
-5061 -5063 0
-5061 -5064 0
-5061 -5065 0
-5062 -5063 0
-5062 -5064 0
-5062 -5065 0
-5063 -5064 0
-5063 -5065 0
-5064 -5065 0
5066 5067 5068 5069 5070 0
-5066 -5067 0
-5066 -5068 0
-5066 -5069 0
-5066 -5070 0
-5067 -5068 0
-5067 -5069 0
-5067 -5070 0
-5068 -5069 0
-5068 -5070 0
-5069 -5070 0
5071 5072 5073 5074 5075 0
-5071 -5072 0
-5071 -5073 0
-5071 -5074 0
-5071 -5075 0
-5072 -5073 0
-5072 -5074 0
-5072 -5075 0
-5073 -5074 0
-5073 -5075 0
-5074 -5075 0
5076 5077 5078 5079 5080 0
-5076 -5077 0
-5076 -5078 0
-5076 -5079 0
-5076 -5080 0
-5077 -5078 0
-5077 -5079 0
-5077 -5080 0
-5078 -5079 0
-5078 -5080 0
-5079 -5080 0
5081 5082 5083 5084 5085 0
-5081 -5082 0
-5081 -5083 0
-5081 -5084 0
-5081 -5085 0
-5082 -5083 0
-5082 -5084 0
-5082 -5085 0
-5083 -5084 0
-5083 -5085 0
-5084 -5085 0
-1 -741 0
-2 -742 0
-3 -743 0
-4 -744 0
-5 -745 0
-1 -746 0
-2 -747 0
-3 -748 0
-4 -749 0
-5 -750 0
-1 -751 0
-2 -752 0
-3 -753 0
-4 -754 0
-5 -755 0
-1 -756 0
-2 -757 0
-3 -758 0
-4 -759 0
-5 -760 0
-1 -761 0
-2 -762 0
-3 -763 0
-4 -764 0
-5 -765 0
-1 -766 0
-2 -767 0
-3 -768 0
-4 -769 0
-5 -770 0
-1 -771 0
-2 -772 0
-3 -773 0
-4 -774 0
-5 -775 0
-1 -776 0
-2 -777 0
-3 -778 0
-4 -779 0
-5 -780 0
-1 -781 0
-2 -782 0
-3 -783 0
-4 -784 0
-5 -785 0
-1 -786 0
-2 -787 0
-3 -788 0
-4 -789 0
-5 -790 0
-1 -791 0
-2 -792 0
-3 -793 0
-4 -794 0
-5 -795 0
-1 -796 0
-2 -797 0
-3 -798 0
-4 -799 0
-5 -800 0
-1 -801 0
-2 -802 0
-3 -803 0
-4 -804 0
-5 -805 0
-1 -806 0
-2 -807 0
-3 -808 0
-4 -809 0
-5 -810 0
-1 -811 0
-2 -812 0
-3 -813 0
-4 -814 0
-5 -815 0
-1 -816 0
-2 -817 0
-3 -818 0
-4 -819 0
-5 -820 0
-1 -821 0
-2 -822 0
-3 -823 0
-4 -824 0
-5 -825 0
-1 -826 0
-2 -827 0
-3 -828 0
-4 -829 0
-5 -830 0
-1 -831 0
-2 -832 0
-3 -833 0
-4 -834 0
-5 -835 0
-1 -836 0
-2 -837 0
-3 -838 0
-4 -839 0
-5 -840 0
-1 -841 0
-2 -842 0
-3 -843 0
-4 -844 0
-5 -845 0
-1 -846 0
-2 -847 0
-3 -848 0
-4 -849 0
-5 -850 0
-1 -851 0
-2 -852 0
-3 -853 0
-4 -854 0
-5 -855 0
-1 -856 0
-2 -857 0
-3 -858 0
-4 -859 0
-5 -860 0
-1 -1986 0
-2 -1987 0
-3 -1988 0
-4 -1989 0
-5 -1990 0
-1 -1991 0
-2 -1992 0
-3 -1993 0
-4 -1994 0
-5 -1995 0
-1 -1996 0
-2 -1997 0
-3 -1998 0
-4 -1999 0
-5 -2000 0
-1 -2001 0
-2 -2002 0
-3 -2003 0
-4 -2004 0
-5 -2005 0
-1 -2006 0
-2 -2007 0
-3 -2008 0
-4 -2009 0
-5 -2010 0
-1 -2011 0
-2 -2012 0
-3 -2013 0
-4 -2014 0
-5 -2015 0
-1 -2016 0
-2 -2017 0
-3 -2018 0
-4 -2019 0
-5 -2020 0
-1 -2021 0
-2 -2022 0
-3 -2023 0
-4 -2024 0
-5 -2025 0
-1 -2026 0
-2 -2027 0
-3 -2028 0
-4 -2029 0
-5 -2030 0
-1 -2031 0
-2 -2032 0
-3 -2033 0
-4 -2034 0
-5 -2035 0
-1 -2036 0
-2 -2037 0
-3 -2038 0
-4 -2039 0
-5 -2040 0
-1 -2041 0
-2 -2042 0
-3 -2043 0
-4 -2044 0
-5 -2045 0
-1 -3281 0
-2 -3282 0
-3 -3283 0
-4 -3284 0
-5 -3285 0
-1 -3286 0
-2 -3287 0
-3 -3288 0
-4 -3289 0
-5 -3290 0
-1 -3291 0
-2 -3292 0
-3 -3293 0
-4 -3294 0
-5 -3295 0
-1 -3296 0
-2 -3297 0
-3 -3298 0
-4 -3299 0
-5 -3300 0
-1 -3301 0
-2 -3302 0
-3 -3303 0
-4 -3304 0
-5 -3305 0
-1 -3306 0
-2 -3307 0
-3 -3308 0
-4 -3309 0
-5 -3310 0
-1 -3311 0
-2 -3312 0
-3 -3313 0
-4 -3314 0
-5 -3315 0
-1 -3316 0
-2 -3317 0
-3 -3318 0
-4 -3319 0
-5 -3320 0
-1 -3321 0
-2 -3322 0
-3 -3323 0
-4 -3324 0
-5 -3325 0
-1 -3326 0
-2 -3327 0
-3 -3328 0
-4 -3329 0
-5 -3330 0
-1 -3331 0
-2 -3332 0
-3 -3333 0
-4 -3334 0
-5 -3335 0
-1 -3336 0
-2 -3337 0
-3 -3338 0
-4 -3339 0
-5 -3340 0
-1 -3341 0
-2 -3342 0
-3 -3343 0
-4 -3344 0
-5 -3345 0
-1 -3346 0
-2 -3347 0
-3 -3348 0
-4 -3349 0
-5 -3350 0
-1 -3351 0
-2 -3352 0
-3 -3353 0
-4 -3354 0
-5 -3355 0
-1 -3356 0
-2 -3357 0
-3 -3358 0
-4 -3359 0
-5 -3360 0
-1 -3361 0
-2 -3362 0
-3 -3363 0
-4 -3364 0
-5 -3365 0
-1 -3366 0
-2 -3367 0
-3 -3368 0
-4 -3369 0
-5 -3370 0
-1 -3371 0
-2 -3372 0
-3 -3373 0
-4 -3374 0
-5 -3375 0
-1 -3376 0
-2 -3377 0
-3 -3378 0
-4 -3379 0
-5 -3380 0
-1 -3381 0
-2 -3382 0
-3 -3383 0
-4 -3384 0
-5 -3385 0
-1 -3386 0
-2 -3387 0
-3 -3388 0
-4 -3389 0
-5 -3390 0
-1 -3391 0
-2 -3392 0
-3 -3393 0
-4 -3394 0
-5 -3395 0
-1 -3396 0
-2 -3397 0
-3 -3398 0
-4 -3399 0
-5 -3400 0
-1 -4526 0
-2 -4527 0
-3 -4528 0
-4 -4529 0
-5 -4530 0
-1 -4531 0
-2 -4532 0
-3 -4533 0
-4 -4534 0
-5 -4535 0
-1 -4536 0
-2 -4537 0
-3 -4538 0
-4 -4539 0
-5 -4540 0
-1 -4541 0
-2 -4542 0
-3 -4543 0
-4 -4544 0
-5 -4545 0
-1 -4546 0
-2 -4547 0
-3 -4548 0
-4 -4549 0
-5 -4550 0
-1 -4551 0
-2 -4552 0
-3 -4553 0
-4 -4554 0
-5 -4555 0
-1 -4556 0
-2 -4557 0
-3 -4558 0
-4 -4559 0
-5 -4560 0
-1 -4561 0
-2 -4562 0
-3 -4563 0
-4 -4564 0
-5 -4565 0
-1 -4566 0
-2 -4567 0
-3 -4568 0
-4 -4569 0
-5 -4570 0
-1 -4571 0
-2 -4572 0
-3 -4573 0
-4 -4574 0
-5 -4575 0
-1 -4576 0
-2 -4577 0
-3 -4578 0
-4 -4579 0
-5 -4580 0
-1 -4581 0
-2 -4582 0
-3 -4583 0
-4 -4584 0
-5 -4585 0
-6 -651 0
-7 -652 0
-8 -653 0
-9 -654 0
-10 -655 0
-6 -691 0
-7 -692 0
-8 -693 0
-9 -694 0
-10 -695 0
-6 -711 0
-7 -712 0
-8 -713 0
-9 -714 0
-10 -715 0
-6 -771 0
-7 -772 0
-8 -773 0
-9 -774 0
-10 -775 0
-6 -871 0
-7 -872 0
-8 -873 0
-9 -874 0
-10 -875 0
-6 -911 0
-7 -912 0
-8 -913 0
-9 -914 0
-10 -915 0
-6 -941 0
-7 -942 0
-8 -943 0
-9 -944 0
-10 -945 0
-6 -991 0
-7 -992 0
-8 -993 0
-9 -994 0
-10 -995 0
-6 -996 0
-7 -997 0
-8 -998 0
-9 -999 0
-10 -1000 0
-6 -1006 0
-7 -1007 0
-8 -1008 0
-9 -1009 0
-10 -1010 0
-11 -601 0
-12 -602 0
-13 -603 0
-14 -604 0
-15 -605 0
-11 -606 0
-12 -607 0
-13 -608 0
-14 -609 0
-15 -610 0
-11 -636 0
-12 -637 0
-13 -638 0
-14 -639 0
-15 -640 0
-11 -656 0
-12 -657 0
-13 -658 0
-14 -659 0
-15 -660 0
-11 -696 0
-12 -697 0
-13 -698 0
-14 -699 0
-15 -700 0
-11 -716 0
-12 -717 0
-13 -718 0
-14 -719 0
-15 -720 0
-11 -781 0
-12 -782 0
-13 -783 0
-14 -784 0
-15 -785 0
-11 -841 0
-12 -842 0
-13 -843 0
-14 -844 0
-15 -845 0
-11 -876 0
-12 -877 0
-13 -878 0
-14 -879 0
-15 -880 0
-11 -916 0
-12 -917 0
-13 -918 0
-14 -919 0
-15 -920 0
-11 -936 0
-12 -937 0
-13 -938 0
-14 -939 0
-15 -940 0
-11 -946 0
-12 -947 0
-13 -948 0
-14 -949 0
-15 -950 0
-11 -1001 0
-12 -1002 0
-13 -1003 0
-14 -1004 0
-15 -1005 0
-11 -1011 0
-12 -1012 0
-13 -1013 0
-14 -1014 0
-15 -1015 0
-11 -1086 0
-12 -1087 0
-13 -1088 0
-14 -1089 0
-15 -1090 0
-11 -3271 0
-12 -3272 0
-13 -3273 0
-14 -3274 0
-15 -3275 0
-16 -611 0
-17 -612 0
-18 -613 0
-19 -614 0
-20 -615 0
-16 -616 0
-17 -617 0
-18 -618 0
-19 -619 0
-20 -620 0
-16 -636 0
-17 -637 0
-18 -638 0
-19 -639 0
-20 -640 0
-16 -661 0
-17 -662 0
-18 -663 0
-19 -664 0
-20 -665 0
-16 -701 0
-17 -702 0
-18 -703 0
-19 -704 0
-20 -705 0
-16 -721 0
-17 -722 0
-18 -723 0
-19 -724 0
-20 -725 0
-16 -736 0
-17 -737 0
-18 -738 0
-19 -739 0
-20 -740 0
-16 -796 0
-17 -797 0
-18 -798 0
-19 -799 0
-20 -800 0
-16 -856 0
-17 -857 0
-18 -858 0
-19 -859 0
-20 -860 0
-16 -861 0
-17 -862 0
-18 -863 0
-19 -864 0
-20 -865 0
-16 -881 0
-17 -882 0
-18 -883 0
-19 -884 0
-20 -885 0
-16 -941 0
-17 -942 0
-18 -943 0
-19 -944 0
-20 -945 0
-16 -951 0
-17 -952 0
-18 -953 0
-19 -954 0
-20 -955 0
-16 -1011 0
-17 -1012 0
-18 -1013 0
-19 -1014 0
-20 -1015 0
-16 -1021 0
-17 -1022 0
-18 -1023 0
-19 -1024 0
-20 -1025 0
-21 -666 0
-22 -667 0
-23 -668 0
-24 -669 0
-25 -670 0
-21 -706 0
-22 -707 0
-23 -708 0
-24 -709 0
-25 -710 0
-21 -726 0
-22 -727 0
-23 -728 0
-24 -729 0
-25 -730 0
-21 -746 0
-22 -747 0
-23 -748 0
-24 -749 0
-25 -750 0
-21 -866 0
-22 -867 0
-23 -868 0
-24 -869 0
-25 -870 0
-21 -886 0
-22 -887 0
-23 -888 0
-24 -889 0
-25 -890 0
-21 -946 0
-22 -947 0
-23 -948 0
-24 -949 0
-25 -950 0
-21 -956 0
-22 -957 0
-23 -958 0
-24 -959 0
-25 -960 0
-21 -1016 0
-22 -1017 0
-23 -1018 0
-24 -1019 0
-25 -1020 0
-21 -1026 0
-22 -1027 0
-23 -1028 0
-24 -1029 0
-25 -1030 0
-26 -661 0
-27 -662 0
-28 -663 0
-29 -664 0
-30 -665 0
-26 -671 0
-27 -672 0
-28 -673 0
-29 -674 0
-30 -675 0
-26 -711 0
-27 -712 0
-28 -713 0
-29 -714 0
-30 -715 0
-26 -811 0
-27 -812 0
-28 -813 0
-29 -814 0
-30 -815 0
-26 -871 0
-27 -872 0
-28 -873 0
-29 -874 0
-30 -875 0
-26 -891 0
-27 -892 0
-28 -893 0
-29 -894 0
-30 -895 0
-26 -951 0
-27 -952 0
-28 -953 0
-29 -954 0
-30 -955 0
-26 -961 0
-27 -962 0
-28 -963 0
-29 -964 0
-30 -965 0
-26 -1026 0
-27 -1027 0
-28 -1028 0
-29 -1029 0
-30 -1030 0
-26 -1036 0
-27 -1037 0
-28 -1038 0
-29 -1039 0
-30 -1040 0
-31 -621 0
-32 -622 0
-33 -623 0
-34 -624 0
-35 -625 0
-31 -626 0
-32 -627 0
-33 -628 0
-34 -629 0
-35 -630 0
-31 -666 0
-32 -667 0
-33 -668 0
-34 -669 0
-35 -670 0
-31 -676 0
-32 -677 0
-33 -678 0
-34 -679 0
-35 -680 0
-31 -716 0
-32 -717 0
-33 -718 0
-34 -719 0
-35 -720 0
-31 -761 0
-32 -762 0
-33 -763 0
-34 -764 0
-35 -765 0
-31 -821 0
-32 -822 0
-33 -823 0
-34 -824 0
-35 -825 0
-31 -876 0
-32 -877 0
-33 -878 0
-34 -879 0
-35 -880 0
-31 -896 0
-32 -897 0
-33 -898 0
-34 -899 0
-35 -900 0
-31 -956 0
-32 -957 0
-33 -958 0
-34 -959 0
-35 -960 0
-31 -966 0
-32 -967 0
-33 -968 0
-34 -969 0
-35 -970 0
-31 -1031 0
-32 -1032 0
-33 -1033 0
-34 -1034 0
-35 -1035 0
-31 -1041 0
-32 -1042 0
-33 -1043 0
-34 -1044 0
-35 -1045 0
-31 -1091 0
-32 -1092 0
-33 -1093 0
-34 -1094 0
-35 -1095 0
-36 -576 0
-37 -577 0
-38 -578 0
-39 -579 0
-40 -580 0
-36 -626 0
-37 -627 0
-38 -628 0
-39 -629 0
-40 -630 0
-36 -641 0
-37 -642 0
-38 -643 0
-39 -644 0
-40 -645 0
-36 -681 0
-37 -682 0
-38 -683 0
-39 -684 0
-40 -685 0
-36 -721 0
-37 -722 0
-38 -723 0
-39 -724 0
-40 -725 0
-36 -776 0
-37 -777 0
-38 -778 0
-39 -779 0
-40 -780 0
-36 -836 0
-37 -837 0
-38 -838 0
-39 -839 0
-40 -840 0
-36 -881 0
-37 -882 0
-38 -883 0
-39 -884 0
-40 -885 0
-36 -901 0
-37 -902 0
-38 -903 0
-39 -904 0
-40 -905 0
-36 -961 0
-37 -962 0
-38 -963 0
-39 -964 0
-40 -965 0
-36 -971 0
-37 -972 0
-38 -973 0
-39 -974 0
-40 -975 0
-36 -1041 0
-37 -1042 0
-38 -1043 0
-39 -1044 0
-40 -1045 0
-36 -1051 0
-37 -1052 0
-38 -1053 0
-39 -1054 0
-40 -1055 0
-36 -1096 0
-37 -1097 0
-38 -1098 0
-39 -1099 0
-40 -1100 0
-41 -646 0
-42 -647 0
-43 -648 0
-44 -649 0
-45 -650 0
-41 -686 0
-42 -687 0
-43 -688 0
-44 -689 0
-45 -690 0
-41 -726 0
-42 -727 0
-43 -728 0
-44 -729 0
-45 -730 0
-41 -786 0
-42 -787 0
-43 -788 0
-44 -789 0
-45 -790 0
-41 -886 0
-42 -887 0
-43 -888 0
-44 -889 0
-45 -890 0
-41 -906 0
-42 -907 0
-43 -908 0
-44 -909 0
-45 -910 0
-41 -966 0
-42 -967 0
-43 -968 0
-44 -969 0
-45 -970 0
-41 -976 0
-42 -977 0
-43 -978 0
-44 -979 0
-45 -980 0
-41 -1046 0
-42 -1047 0
-43 -1048 0
-44 -1049 0
-45 -1050 0
-41 -1056 0
-42 -1057 0
-43 -1058 0
-44 -1059 0
-45 -1060 0
-46 -641 0
-47 -642 0
-48 -643 0
-49 -644 0
-50 -645 0
-46 -671 0
-47 -672 0
-48 -673 0
-49 -674 0
-50 -675 0
-46 -691 0
-47 -692 0
-48 -693 0
-49 -694 0
-50 -695 0
-46 -851 0
-47 -852 0
-48 -853 0
-49 -854 0
-50 -855 0
-46 -891 0
-47 -892 0
-48 -893 0
-49 -894 0
-50 -895 0
-46 -911 0
-47 -912 0
-48 -913 0
-49 -914 0
-50 -915 0
-46 -971 0
-47 -972 0
-48 -973 0
-49 -974 0
-50 -975 0
-46 -981 0
-47 -982 0
-48 -983 0
-49 -984 0
-50 -985 0
-46 -1056 0
-47 -1057 0
-48 -1058 0
-49 -1059 0
-50 -1060 0
-46 -1066 0
-47 -1067 0
-48 -1068 0
-49 -1069 0
-50 -1070 0
-51 -581 0
-52 -582 0
-53 -583 0
-54 -584 0
-55 -585 0
-51 -586 0
-52 -587 0
-53 -588 0
-54 -589 0
-55 -590 0
-51 -631 0
-52 -632 0
-53 -633 0
-54 -634 0
-55 -635 0
-51 -646 0
-52 -647 0
-53 -648 0
-54 -649 0
-55 -650 0
-51 -676 0
-52 -677 0
-53 -678 0
-54 -679 0
-55 -680 0
-51 -696 0
-52 -697 0
-53 -698 0
-54 -699 0
-55 -700 0
-51 -731 0
-52 -732 0
-53 -733 0
-54 -734 0
-55 -735 0
-51 -741 0
-52 -742 0
-53 -743 0
-54 -744 0
-55 -745 0
-51 -801 0
-52 -802 0
-53 -803 0
-54 -804 0
-55 -805 0
-51 -896 0
-52 -897 0
-53 -898 0
-54 -899 0
-55 -900 0
-51 -916 0
-52 -917 0
-53 -918 0
-54 -919 0
-55 -920 0
-51 -976 0
-52 -977 0
-53 -978 0
-54 -979 0
-55 -980 0
-51 -986 0
-52 -987 0
-53 -988 0
-54 -989 0
-55 -990 0
-51 -1061 0
-52 -1062 0
-53 -1063 0
-54 -1064 0
-55 -1065 0
-51 -1071 0
-52 -1072 0
-53 -1073 0
-54 -1074 0
-55 -1075 0
-56 -591 0
-57 -592 0
-58 -593 0
-59 -594 0
-60 -595 0
-56 -596 0
-57 -597 0
-58 -598 0
-59 -599 0
-60 -600 0
-56 -631 0
-57 -632 0
-58 -633 0
-59 -634 0
-60 -635 0
-56 -651 0
-57 -652 0
-58 -653 0
-59 -654 0
-60 -655 0
-56 -681 0
-57 -682 0
-58 -683 0
-59 -684 0
-60 -685 0
-56 -701 0
-57 -702 0
-58 -703 0
-59 -704 0
-60 -705 0
-56 -756 0
-57 -757 0
-58 -758 0
-59 -759 0
-60 -760 0
-56 -816 0
-57 -817 0
-58 -818 0
-59 -819 0
-60 -820 0
-56 -861 0
-57 -862 0
-58 -863 0
-59 -864 0
-60 -865 0
-56 -901 0
-57 -902 0
-58 -903 0
-59 -904 0
-60 -905 0
-56 -981 0
-57 -982 0
-58 -983 0
-59 -984 0
-60 -985 0
-56 -991 0
-57 -992 0
-58 -993 0
-59 -994 0
-60 -995 0
-56 -1071 0
-57 -1072 0
-58 -1073 0
-59 -1074 0
-60 -1075 0
-56 -1081 0
-57 -1082 0
-58 -1083 0
-59 -1084 0
-60 -1085 0
-56 -1101 0
-57 -1102 0
-58 -1103 0
-59 -1104 0
-60 -1105 0
-61 -656 0
-62 -657 0
-63 -658 0
-64 -659 0
-65 -660 0
-61 -686 0
-62 -687 0
-63 -688 0
-64 -689 0
-65 -690 0
-61 -706 0
-62 -707 0
-63 -708 0
-64 -709 0
-65 -710 0
-61 -826 0
-62 -827 0
-63 -828 0
-64 -829 0
-65 -830 0
-61 -866 0
-62 -867 0
-63 -868 0
-64 -869 0
-65 -870 0
-61 -906 0
-62 -907 0
-63 -908 0
-64 -909 0
-65 -910 0
-61 -936 0
-62 -937 0
-63 -938 0
-64 -939 0
-65 -940 0
-61 -986 0
-62 -987 0
-63 -988 0
-64 -989 0
-65 -990 0
-61 -996 0
-62 -997 0
-63 -998 0
-64 -999 0
-65 -1000 0
-61 -1076 0
-62 -1077 0
-63 -1078 0
-64 -1079 0
-65 -1080 0
-66 -466 0
-67 -467 0
-68 -468 0
-69 -469 0
-70 -470 0
-66 -471 0
-67 -472 0
-68 -473 0
-69 -474 0
-70 -475 0
-66 -526 0
-67 -527 0
-68 -528 0
-69 -529 0
-70 -530 0
-66 -531 0
-67 -532 0
-68 -533 0
-69 -534 0
-70 -535 0
-66 -631 0
-67 -632 0
-68 -633 0
-69 -634 0
-70 -635 0
-66 -636 0
-67 -637 0
-68 -638 0
-69 -639 0
-70 -640 0
-66 -921 0
-67 -922 0
-68 -923 0
-69 -924 0
-70 -925 0
-66 -931 0
-67 -932 0
-68 -933 0
-69 -934 0
-70 -935 0
-66 -941 0
-67 -942 0
-68 -943 0
-69 -944 0
-70 -945 0
-66 -986 0
-67 -987 0
-68 -988 0
-69 -989 0
-70 -990 0
-66 -1086 0
-67 -1087 0
-68 -1088 0
-69 -1089 0
-70 -1090 0
-66 -1101 0
-67 -1102 0
-68 -1103 0
-69 -1104 0
-70 -1105 0
-66 -3086 0
-67 -3087 0
-68 -3088 0
-69 -3089 0
-70 -3090 0
-71 -486 0
-72 -487 0
-73 -488 0
-74 -489 0
-75 -490 0
-71 -491 0
-72 -492 0
-73 -493 0
-74 -494 0
-75 -495 0
-71 -546 0
-72 -547 0
-73 -548 0
-74 -549 0
-75 -550 0
-71 -551 0
-72 -552 0
-73 -553 0
-74 -554 0
-75 -555 0
-71 -626 0
-72 -627 0
-73 -628 0
-74 -629 0
-75 -630 0
-71 -636 0
-72 -637 0
-73 -638 0
-74 -639 0
-75 -640 0
-71 -921 0
-72 -922 0
-73 -923 0
-74 -924 0
-75 -925 0
-71 -926 0
-72 -927 0
-73 -928 0
-74 -929 0
-75 -930 0
-71 -946 0
-72 -947 0
-73 -948 0
-74 -949 0
-75 -950 0
-71 -961 0
-72 -962 0
-73 -963 0
-74 -964 0
-75 -965 0
-71 -1091 0
-72 -1092 0
-73 -1093 0
-74 -1094 0
-75 -1095 0
-71 -3046 0
-72 -3047 0
-73 -3048 0
-74 -3049 0
-75 -3050 0
-76 -446 0
-77 -447 0
-78 -448 0
-79 -449 0
-80 -450 0
-76 -451 0
-77 -452 0
-78 -453 0
-79 -454 0
-80 -455 0
-76 -506 0
-77 -507 0
-78 -508 0
-79 -509 0
-80 -510 0
-76 -511 0
-77 -512 0
-78 -513 0
-79 -514 0
-80 -515 0
-76 -626 0
-77 -627 0
-78 -628 0
-79 -629 0
-80 -630 0
-76 -631 0
-77 -632 0
-78 -633 0
-79 -634 0
-80 -635 0
-76 -926 0
-77 -927 0
-78 -928 0
-79 -929 0
-80 -930 0
-76 -931 0
-77 -932 0
-78 -933 0
-79 -934 0
-80 -935 0
-76 -966 0
-77 -967 0
-78 -968 0
-79 -969 0
-80 -970 0
-76 -981 0
-77 -982 0
-78 -983 0
-79 -984 0
-80 -985 0
-76 -1096 0
-77 -1097 0
-78 -1098 0
-79 -1099 0
-80 -1100 0
-76 -3066 0
-77 -3067 0
-78 -3068 0
-79 -3069 0
-80 -3070 0
-81 -406 0
-82 -407 0
-83 -408 0
-84 -409 0
-85 -410 0
-81 -461 0
-82 -462 0
-83 -463 0
-84 -464 0
-85 -465 0
-81 -571 0
-82 -572 0
-83 -573 0
-84 -574 0
-85 -575 0
-81 -611 0
-82 -612 0
-83 -613 0
-84 -614 0
-85 -615 0
-81 -766 0
-82 -767 0
-83 -768 0
-84 -769 0
-85 -770 0
-81 -836 0
-82 -837 0
-83 -838 0
-84 -839 0
-85 -840 0
-81 -1011 0
-82 -1012 0
-83 -1013 0
-84 -1014 0
-85 -1015 0
-81 -1076 0
-82 -1077 0
-83 -1078 0
-84 -1079 0
-85 -1080 0
-81 -1126 0
-82 -1127 0
-83 -1128 0
-84 -1129 0
-85 -1130 0
-81 -1131 0
-82 -1132 0
-83 -1133 0
-84 -1134 0
-85 -1135 0
-86 -431 0
-87 -432 0
-88 -433 0
-89 -434 0
-90 -435 0
-86 -496 0
-87 -497 0
-88 -498 0
-89 -499 0
-90 -500 0
-86 -571 0
-87 -572 0
-88 -573 0
-89 -574 0
-90 -575 0
-86 -606 0
-87 -607 0
-88 -608 0
-89 -609 0
-90 -610 0
-86 -731 0
-87 -732 0
-88 -733 0
-89 -734 0
-90 -735 0
-86 -751 0
-87 -752 0
-88 -753 0
-89 -754 0
-90 -755 0
-86 -801 0
-87 -802 0
-88 -803 0
-89 -804 0
-90 -805 0
-86 -1011 0
-87 -1012 0
-88 -1013 0
-89 -1014 0
-90 -1015 0
-86 -1036 0
-87 -1037 0
-88 -1038 0
-89 -1039 0
-90 -1040 0
-86 -1111 0
-87 -1112 0
-88 -1113 0
-89 -1114 0
-90 -1115 0
-86 -1146 0
-87 -1147 0
-88 -1148 0
-89 -1149 0
-90 -1150 0
-86 -1151 0
-87 -1152 0
-88 -1153 0
-89 -1154 0
-90 -1155 0
-86 -3711 0
-87 -3712 0
-88 -3713 0
-89 -3714 0
-90 -3715 0
-91 -426 0
-92 -427 0
-93 -428 0
-94 -429 0
-95 -430 0
-91 -481 0
-92 -482 0
-93 -483 0
-94 -484 0
-95 -485 0
-91 -561 0
-92 -562 0
-93 -563 0
-94 -564 0
-95 -565 0
-91 -756 0
-92 -757 0
-93 -758 0
-94 -759 0
-95 -760 0
-91 -806 0
-92 -807 0
-93 -808 0
-94 -809 0
-95 -810 0
-91 -1016 0
-92 -1017 0
-93 -1018 0
-94 -1019 0
-95 -1020 0
-91 -1041 0
-92 -1042 0
-93 -1043 0
-94 -1044 0
-95 -1045 0
-91 -1106 0
-92 -1107 0
-93 -1108 0
-94 -1109 0
-95 -1110 0
-91 -1156 0
-92 -1157 0
-93 -1158 0
-94 -1159 0
-95 -1160 0
-91 -1161 0
-92 -1162 0
-93 -1163 0
-94 -1164 0
-95 -1165 0
-96 -391 0
-97 -392 0
-98 -393 0
-99 -394 0
-100 -395 0
-96 -456 0
-97 -457 0
-98 -458 0
-99 -459 0
-100 -460 0
-96 -561 0
-97 -562 0
-98 -563 0
-99 -564 0
-100 -565 0
-96 -791 0
-97 -792 0
-98 -793 0
-99 -794 0
-100 -795 0
-96 -841 0
-97 -842 0
-98 -843 0
-99 -844 0
-100 -845 0
-96 -1041 0
-97 -1042 0
-98 -1043 0
-99 -1044 0
-100 -1045 0
-96 -1066 0
-97 -1067 0
-98 -1068 0
-99 -1069 0
-100 -1070 0
-96 -1121 0
-97 -1122 0
-98 -1123 0
-99 -1124 0
-100 -1125 0
-96 -1176 0
-97 -1177 0
-98 -1178 0
-99 -1179 0
-100 -1180 0
-96 -1181 0
-97 -1182 0
-98 -1183 0
-99 -1184 0
-100 -1185 0
-96 -3741 0
-97 -3742 0
-98 -3743 0
-99 -3744 0
-100 -3745 0
-101 -386 0
-102 -387 0
-103 -388 0
-104 -389 0
-105 -390 0
-101 -441 0
-102 -442 0
-103 -443 0
-104 -444 0
-105 -445 0
-101 -566 0
-102 -567 0
-103 -568 0
-104 -569 0
-105 -570 0
-101 -591 0
-102 -592 0
-103 -593 0
-104 -594 0
-105 -595 0
-101 -736 0
-102 -737 0
-103 -738 0
-104 -739 0
-105 -740 0
-101 -796 0
-102 -797 0
-103 -798 0
-104 -799 0
-105 -800 0
-101 -846 0
-102 -847 0
-103 -848 0
-104 -849 0
-105 -850 0
-101 -1046 0
-102 -1047 0
-103 -1048 0
-104 -1049 0
-105 -1050 0
-101 -1071 0
-102 -1072 0
-103 -1073 0
-104 -1074 0
-105 -1075 0
-101 -1116 0
-102 -1117 0
-103 -1118 0
-104 -1119 0
-105 -1120 0
-101 -1186 0
-102 -1187 0
-103 -1188 0
-104 -1189 0
-105 -1190 0
-101 -1191 0
-102 -1192 0
-103 -1193 0
-104 -1194 0
-105 -1195 0
-106 -411 0
-107 -412 0
-108 -413 0
-109 -414 0
-110 -415 0
-106 -476 0
-107 -477 0
-108 -478 0
-109 -479 0
-110 -480 0
-106 -566 0
-107 -567 0
-108 -568 0
-109 -569 0
-110 -570 0
-106 -586 0
-107 -587 0
-108 -588 0
-109 -589 0
-110 -590 0
-106 -761 0
-107 -762 0
-108 -763 0
-109 -764 0
-110 -765 0
-106 -831 0
-107 -832 0
-108 -833 0
-109 -834 0
-110 -835 0
-106 -1006 0
-107 -1007 0
-108 -1008 0
-109 -1009 0
-110 -1010 0
-106 -1071 0
-107 -1072 0
-108 -1073 0
-109 -1074 0
-110 -1075 0
-106 -1206 0
-107 -1207 0
-108 -1208 0
-109 -1209 0
-110 -1210 0
-106 -1211 0
-107 -1212 0
-108 -1213 0
-109 -1214 0
-110 -1215 0
-106 -3681 0
-107 -3682 0
-108 -3683 0
-109 -3684 0
-110 -3685 0
-111 -406 0
-112 -407 0
-113 -408 0
-114 -409 0
-115 -410 0
-111 -421 0
-112 -422 0
-113 -423 0
-114 -424 0
-115 -425 0
-111 -526 0
-112 -527 0
-113 -528 0
-114 -529 0
-115 -530 0
-111 -541 0
-112 -542 0
-113 -543 0
-114 -544 0
-115 -545 0
-111 -876 0
-112 -877 0
-113 -878 0
-114 -879 0
-115 -880 0
-111 -911 0
-112 -912 0
-113 -913 0
-114 -914 0
-115 -915 0
-111 -1126 0
-112 -1127 0
-113 -1128 0
-114 -1129 0
-115 -1130 0
-111 -3096 0
-112 -3097 0
-113 -3098 0
-114 -3099 0
-115 -3100 0
-116 -416 0
-117 -417 0
-118 -418 0
-119 -419 0
-120 -420 0
-116 -431 0
-117 -432 0
-118 -433 0
-119 -434 0
-120 -435 0
-116 -536 0
-117 -537 0
-118 -538 0
-119 -539 0
-120 -540 0
-116 -551 0
-117 -552 0
-118 -553 0
-119 -554 0
-120 -555 0
-116 -861 0
-117 -862 0
-118 -863 0
-119 -864 0
-120 -865 0
-116 -886 0
-117 -887 0
-118 -888 0
-119 -889 0
-120 -890 0
-116 -1151 0
-117 -1152 0
-118 -1153 0
-119 -1154 0
-120 -1155 0
-116 -3046 0
-117 -3047 0
-118 -3048 0
-119 -3049 0
-120 -3050 0
-121 -381 0
-122 -382 0
-123 -383 0
-124 -384 0
-125 -385 0
-121 -426 0
-122 -427 0
-123 -428 0
-124 -429 0
-125 -430 0
-121 -501 0
-122 -502 0
-123 -503 0
-124 -504 0
-125 -505 0
-121 -546 0
-122 -547 0
-123 -548 0
-124 -549 0
-125 -550 0
-121 -871 0
-122 -872 0
-123 -873 0
-124 -874 0
-125 -875 0
-121 -896 0
-122 -897 0
-123 -898 0
-124 -899 0
-125 -900 0
-121 -1156 0
-122 -1157 0
-123 -1158 0
-124 -1159 0
-125 -1160 0
-121 -3056 0
-122 -3057 0
-123 -3058 0
-124 -3059 0
-125 -3060 0
-126 -391 0
-127 -392 0
-128 -393 0
-129 -394 0
-130 -395 0
-126 -436 0
-127 -437 0
-128 -438 0
-129 -439 0
-130 -440 0
-126 -511 0
-127 -512 0
-128 -513 0
-129 -514 0
-130 -515 0
-126 -556 0
-127 -557 0
-128 -558 0
-129 -559 0
-130 -560 0
-126 -881 0
-127 -882 0
-128 -883 0
-129 -884 0
-130 -885 0
-126 -906 0
-127 -907 0
-128 -908 0
-129 -909 0
-130 -910 0
-126 -1181 0
-127 -1182 0
-128 -1183 0
-129 -1184 0
-130 -1185 0
-126 -3066 0
-127 -3067 0
-128 -3068 0
-129 -3069 0
-130 -3070 0
-131 -386 0
-132 -387 0
-133 -388 0
-134 -389 0
-135 -390 0
-131 -401 0
-132 -402 0
-133 -403 0
-134 -404 0
-135 -405 0
-131 -506 0
-132 -507 0
-133 -508 0
-134 -509 0
-135 -510 0
-131 -521 0
-132 -522 0
-133 -523 0
-134 -524 0
-135 -525 0
-131 -891 0
-132 -892 0
-133 -893 0
-134 -894 0
-135 -895 0
-131 -916 0
-132 -917 0
-133 -918 0
-134 -919 0
-135 -920 0
-131 -1186 0
-132 -1187 0
-133 -1188 0
-134 -1189 0
-135 -1190 0
-131 -3076 0
-132 -3077 0
-133 -3078 0
-134 -3079 0
-135 -3080 0
-136 -396 0
-137 -397 0
-138 -398 0
-139 -399 0
-140 -400 0
-136 -411 0
-137 -412 0
-138 -413 0
-139 -414 0
-140 -415 0
-136 -516 0
-137 -517 0
-138 -518 0
-139 -519 0
-140 -520 0
-136 -531 0
-137 -532 0
-138 -533 0
-139 -534 0
-140 -535 0
-136 -866 0
-137 -867 0
-138 -868 0
-139 -869 0
-140 -870 0
-136 -901 0
-137 -902 0
-138 -903 0
-139 -904 0
-140 -905 0
-136 -1211 0
-137 -1212 0
-138 -1213 0
-139 -1214 0
-140 -1215 0
-136 -3086 0
-137 -3087 0
-138 -3088 0
-139 -3089 0
-140 -3090 0
-141 -306 0
-142 -307 0
-143 -308 0
-144 -309 0
-145 -310 0
-141 -311 0
-142 -312 0
-143 -313 0
-144 -314 0
-145 -315 0
-141 -366 0
-142 -367 0
-143 -368 0
-144 -369 0
-145 -370 0
-141 -401 0
-142 -402 0
-143 -403 0
-144 -404 0
-145 -405 0
-141 -421 0
-142 -422 0
-143 -423 0
-144 -424 0
-145 -425 0
-141 -586 0
-142 -587 0
-143 -588 0
-144 -589 0
-145 -590 0
-141 -686 0
-142 -687 0
-143 -688 0
-144 -689 0
-145 -690 0
-141 -716 0
-142 -717 0
-143 -718 0
-144 -719 0
-145 -720 0
-141 -946 0
-142 -947 0
-143 -948 0
-144 -949 0
-145 -950 0
-141 -986 0
-142 -987 0
-143 -988 0
-144 -989 0
-145 -990 0
-141 -1136 0
-142 -1137 0
-143 -1138 0
-144 -1139 0
-145 -1140 0
-141 -1231 0
-142 -1232 0
-143 -1233 0
-144 -1234 0
-145 -1235 0
-141 -3701 0
-142 -3702 0
-143 -3703 0
-144 -3704 0
-145 -3705 0
-146 -316 0
-147 -317 0
-148 -318 0
-149 -319 0
-150 -320 0
-146 -321 0
-147 -322 0
-148 -323 0
-149 -324 0
-150 -325 0
-146 -406 0
-147 -407 0
-148 -408 0
-149 -409 0
-150 -410 0
-146 -426 0
-147 -427 0
-148 -428 0
-149 -429 0
-150 -430 0
-146 -596 0
-147 -597 0
-148 -598 0
-149 -599 0
-150 -600 0
-146 -691 0
-147 -692 0
-148 -693 0
-149 -694 0
-150 -695 0
-146 -721 0
-147 -722 0
-148 -723 0
-149 -724 0
-150 -725 0
-146 -951 0
-147 -952 0
-148 -953 0
-149 -954 0
-150 -955 0
-146 -991 0
-147 -992 0
-148 -993 0
-149 -994 0
-150 -995 0
-146 -1106 0
-147 -1107 0
-148 -1108 0
-149 -1109 0
-150 -1110 0
-146 -1131 0
-147 -1132 0
-148 -1133 0
-149 -1134 0
-150 -1135 0
-146 -1281 0
-147 -1282 0
-148 -1283 0
-149 -1284 0
-150 -1285 0
-151 -321 0
-152 -322 0
-153 -323 0
-154 -324 0
-155 -325 0
-151 -326 0
-152 -327 0
-153 -328 0
-154 -329 0
-155 -330 0
-151 -411 0
-152 -412 0
-153 -413 0
-154 -414 0
-155 -415 0
-151 -431 0
-152 -432 0
-153 -433 0
-154 -434 0
-155 -435 0
-151 -621 0
-152 -622 0
-153 -623 0
-154 -624 0
-155 -625 0
-151 -696 0
-152 -697 0
-153 -698 0
-154 -699 0
-155 -700 0
-151 -726 0
-152 -727 0
-153 -728 0
-154 -729 0
-155 -730 0
-151 -936 0
-152 -937 0
-153 -938 0
-154 -939 0
-155 -940 0
-151 -956 0
-152 -957 0
-153 -958 0
-154 -959 0
-155 -960 0
-151 -1146 0
-152 -1147 0
-153 -1148 0
-154 -1149 0
-155 -1150 0
-151 -1286 0
-152 -1287 0
-153 -1288 0
-154 -1289 0
-155 -1290 0
-151 -3711 0
-152 -3712 0
-153 -3713 0
-154 -3714 0
-155 -3715 0
-156 -331 0
-157 -332 0
-158 -333 0
-159 -334 0
-160 -335 0
-156 -336 0
-157 -337 0
-158 -338 0
-159 -339 0
-160 -340 0
-156 -371 0
-157 -372 0
-158 -373 0
-159 -374 0
-160 -375 0
-156 -416 0
-157 -417 0
-158 -418 0
-159 -419 0
-160 -420 0
-156 -436 0
-157 -437 0
-158 -438 0
-159 -439 0
-160 -440 0
-156 -671 0
-157 -672 0
-158 -673 0
-159 -674 0
-160 -675 0
-156 -701 0
-157 -702 0
-158 -703 0
-159 -704 0
-160 -705 0
-156 -941 0
-157 -942 0
-158 -943 0
-159 -944 0
-160 -945 0
-156 -961 0
-157 -962 0
-158 -963 0
-159 -964 0
-160 -965 0
-156 -1141 0
-157 -1142 0
-158 -1143 0
-159 -1144 0
-160 -1145 0
-156 -1236 0
-157 -1237 0
-158 -1238 0
-159 -1239 0
-160 -1240 0
-156 -1246 0
-157 -1247 0
-158 -1248 0
-159 -1249 0
-160 -1250 0
-156 -3721 0
-157 -3722 0
-158 -3723 0
-159 -3724 0
-160 -3725 0
-161 -336 0
-162 -337 0
-163 -338 0
-164 -339 0
-165 -340 0
-161 -341 0
-162 -342 0
-163 -343 0
-164 -344 0
-165 -345 0
-161 -376 0
-162 -377 0
-163 -378 0
-164 -379 0
-165 -380 0
-161 -381 0
-162 -382 0
-163 -383 0
-164 -384 0
-165 -385 0
-161 -421 0
-162 -422 0
-163 -423 0
-164 -424 0
-165 -425 0
-161 -606 0
-162 -607 0
-163 -608 0
-164 -609 0
-165 -610 0
-161 -676 0
-162 -677 0
-163 -678 0
-164 -679 0
-165 -680 0
-161 -706 0
-162 -707 0
-163 -708 0
-164 -709 0
-165 -710 0
-161 -946 0
-162 -947 0
-163 -948 0
-164 -949 0
-165 -950 0
-161 -966 0
-162 -967 0
-163 -968 0
-164 -969 0
-165 -970 0
-161 -1166 0
-162 -1167 0
-163 -1168 0
-164 -1169 0
-165 -1170 0
-161 -1241 0
-162 -1242 0
-163 -1243 0
-164 -1244 0
-165 -1245 0
-161 -1251 0
-162 -1252 0
-163 -1253 0
-164 -1254 0
-165 -1255 0
-161 -3731 0
-162 -3732 0
-163 -3733 0
-164 -3734 0
-165 -3735 0
-166 -261 0
-167 -262 0
-168 -263 0
-169 -264 0
-170 -265 0
-166 -346 0
-167 -347 0
-168 -348 0
-169 -349 0
-170 -350 0
-166 -386 0
-167 -387 0
-168 -388 0
-169 -389 0
-170 -390 0
-166 -426 0
-167 -427 0
-168 -428 0
-169 -429 0
-170 -430 0
-166 -616 0
-167 -617 0
-168 -618 0
-169 -619 0
-170 -620 0
-166 -681 0
-167 -682 0
-168 -683 0
-169 -684 0
-170 -685 0
-166 -711 0
-167 -712 0
-168 -713 0
-169 -714 0
-170 -715 0
-166 -951 0
-167 -952 0
-168 -953 0
-169 -954 0
-170 -955 0
-166 -971 0
-167 -972 0
-168 -973 0
-169 -974 0
-170 -975 0
-166 -1116 0
-167 -1117 0
-168 -1118 0
-169 -1119 0
-170 -1120 0
-166 -1161 0
-167 -1162 0
-168 -1163 0
-169 -1164 0
-170 -1165 0
-166 -1291 0
-167 -1292 0
-168 -1293 0
-169 -1294 0
-170 -1295 0
-171 -261 0
-172 -262 0
-173 -263 0
-174 -264 0
-175 -265 0
-171 -266 0
-172 -267 0
-173 -268 0
-174 -269 0
-175 -270 0
-171 -391 0
-172 -392 0
-173 -393 0
-174 -394 0
-175 -395 0
-171 -431 0
-172 -432 0
-173 -433 0
-174 -434 0
-175 -435 0
-171 -581 0
-172 -582 0
-173 -583 0
-174 -584 0
-175 -585 0
-171 -686 0
-172 -687 0
-173 -688 0
-174 -689 0
-175 -690 0
-171 -716 0
-172 -717 0
-173 -718 0
-174 -719 0
-175 -720 0
-171 -956 0
-172 -957 0
-173 -958 0
-174 -959 0
-175 -960 0
-171 -976 0
-172 -977 0
-173 -978 0
-174 -979 0
-175 -980 0
-171 -1111 0
-172 -1112 0
-173 -1113 0
-174 -1114 0
-175 -1115 0
-171 -1176 0
-172 -1177 0
-173 -1178 0
-174 -1179 0
-175 -1180 0
-171 -1296 0
-172 -1297 0
-173 -1298 0
-174 -1299 0
-175 -1300 0
-171 -3741 0
-172 -3742 0
-173 -3743 0
-174 -3744 0
-175 -3745 0
-176 -271 0
-177 -272 0
-178 -273 0
-179 -274 0
-180 -275 0
-176 -276 0
-177 -277 0
-178 -278 0
-179 -279 0
-180 -280 0
-176 -351 0
-177 -352 0
-178 -353 0
-179 -354 0
-180 -355 0
-176 -396 0
-177 -397 0
-178 -398 0
-179 -399 0
-180 -400 0
-176 -436 0
-177 -437 0
-178 -438 0
-179 -439 0
-180 -440 0
-176 -591 0
-177 -592 0
-178 -593 0
-179 -594 0
-180 -595 0
-176 -691 0
-177 -692 0
-178 -693 0
-179 -694 0
-180 -695 0
-176 -721 0
-177 -722 0
-178 -723 0
-179 -724 0
-180 -725 0
-176 -961 0
-177 -962 0
-178 -963 0
-179 -964 0
-180 -965 0
-176 -981 0
-177 -982 0
-178 -983 0
-179 -984 0
-180 -985 0
-176 -1171 0
-177 -1172 0
-178 -1173 0
-179 -1174 0
-180 -1175 0
-176 -1256 0
-177 -1257 0
-178 -1258 0
-179 -1259 0
-180 -1260 0
-176 -1266 0
-177 -1267 0
-178 -1268 0
-179 -1269 0
-180 -1270 0
-176 -3751 0
-177 -3752 0
-178 -3753 0
-179 -3754 0
-180 -3755 0
-181 -276 0
-182 -277 0
-183 -278 0
-184 -279 0
-185 -280 0
-181 -281 0
-182 -282 0
-183 -283 0
-184 -284 0
-185 -285 0
-181 -356 0
-182 -357 0
-183 -358 0
-184 -359 0
-185 -360 0
-181 -381 0
-182 -382 0
-183 -383 0
-184 -384 0
-185 -385 0
-181 -401 0
-182 -402 0
-183 -403 0
-184 -404 0
-185 -405 0
-181 -696 0
-182 -697 0
-183 -698 0
-184 -699 0
-185 -700 0
-181 -726 0
-182 -727 0
-183 -728 0
-184 -729 0
-185 -730 0
-181 -966 0
-182 -967 0
-183 -968 0
-184 -969 0
-185 -970 0
-181 -986 0
-182 -987 0
-183 -988 0
-184 -989 0
-185 -990 0
-181 -1196 0
-182 -1197 0
-183 -1198 0
-184 -1199 0
-185 -1200 0
-181 -1261 0
-182 -1262 0
-183 -1263 0
-184 -1264 0
-185 -1265 0
-181 -1271 0
-182 -1272 0
-183 -1273 0
-184 -1274 0
-185 -1275 0
-181 -3671 0
-182 -3672 0
-183 -3673 0
-184 -3674 0
-185 -3675 0
-186 -286 0
-187 -287 0
-188 -288 0
-189 -289 0
-190 -290 0
-186 -291 0
-187 -292 0
-188 -293 0
-189 -294 0
-190 -295 0
-186 -386 0
-187 -387 0
-188 -388 0
-189 -389 0
-190 -390 0
-186 -406 0
-187 -407 0
-188 -408 0
-189 -409 0
-190 -410 0
-186 -576 0
-187 -577 0
-188 -578 0
-189 -579 0
-190 -580 0
-186 -671 0
-187 -672 0
-188 -673 0
-189 -674 0
-190 -675 0
-186 -701 0
-187 -702 0
-188 -703 0
-189 -704 0
-190 -705 0
-186 -971 0
-187 -972 0
-188 -973 0
-189 -974 0
-190 -975 0
-186 -991 0
-187 -992 0
-188 -993 0
-189 -994 0
-190 -995 0
-186 -1191 0
-187 -1192 0
-188 -1193 0
-189 -1194 0
-190 -1195 0
-186 -1301 0
-187 -1302 0
-188 -1303 0
-189 -1304 0
-190 -1305 0
-191 -291 0
-192 -292 0
-193 -293 0
-194 -294 0
-195 -295 0
-191 -296 0
-192 -297 0
-193 -298 0
-194 -299 0
-195 -300 0
-191 -391 0
-192 -392 0
-193 -393 0
-194 -394 0
-195 -395 0
-191 -411 0
-192 -412 0
-193 -413 0
-194 -414 0
-195 -415 0
-191 -601 0
-192 -602 0
-193 -603 0
-194 -604 0
-195 -605 0
-191 -676 0
-192 -677 0
-193 -678 0
-194 -679 0
-195 -680 0
-191 -706 0
-192 -707 0
-193 -708 0
-194 -709 0
-195 -710 0
-191 -936 0
-192 -937 0
-193 -938 0
-194 -939 0
-195 -940 0
-191 -976 0
-192 -977 0
-193 -978 0
-194 -979 0
-195 -980 0
-191 -1121 0
-192 -1122 0
-193 -1123 0
-194 -1124 0
-195 -1125 0
-191 -1206 0
-192 -1207 0
-193 -1208 0
-194 -1209 0
-195 -1210 0
-191 -1306 0
-192 -1307 0
-193 -1308 0
-194 -1309 0
-195 -1310 0
-191 -3681 0
-192 -3682 0
-193 -3683 0
-194 -3684 0
-195 -3685 0
-196 -301 0
-197 -302 0
-198 -303 0
-199 -304 0
-200 -305 0
-196 -306 0
-197 -307 0
-198 -308 0
-199 -309 0
-200 -310 0
-196 -361 0
-197 -362 0
-198 -363 0
-199 -364 0
-200 -365 0
-196 -396 0
-197 -397 0
-198 -398 0
-199 -399 0
-200 -400 0
-196 -416 0
-197 -417 0
-198 -418 0
-199 -419 0
-200 -420 0
-196 -611 0
-197 -612 0
-198 -613 0
-199 -614 0
-200 -615 0
-196 -681 0
-197 -682 0
-198 -683 0
-199 -684 0
-200 -685 0
-196 -711 0
-197 -712 0
-198 -713 0
-199 -714 0
-200 -715 0
-196 -941 0
-197 -942 0
-198 -943 0
-199 -944 0
-200 -945 0
-196 -981 0
-197 -982 0
-198 -983 0
-199 -984 0
-200 -985 0
-196 -1201 0
-197 -1202 0
-198 -1203 0
-199 -1204 0
-200 -1205 0
-196 -1276 0
-197 -1277 0
-198 -1278 0
-199 -1279 0
-200 -1280 0
-196 -3691 0
-197 -3692 0
-198 -3693 0
-199 -3694 0
-200 -3695 0
-201 -306 0
-202 -307 0
-203 -308 0
-204 -309 0
-205 -310 0
-201 -321 0
-202 -322 0
-203 -323 0
-204 -324 0
-205 -325 0
-201 -371 0
-202 -372 0
-203 -373 0
-204 -374 0
-205 -375 0
-201 -481 0
-202 -482 0
-203 -483 0
-204 -484 0
-205 -485 0
-201 -771 0
-202 -772 0
-203 -773 0
-204 -774 0
-205 -775 0
-201 -841 0
-202 -842 0
-203 -843 0
-204 -844 0
-205 -845 0
-201 -876 0
-202 -877 0
-203 -878 0
-204 -879 0
-205 -880 0
-201 -911 0
-202 -912 0
-203 -913 0
-204 -914 0
-205 -915 0
-201 -1141 0
-202 -1142 0
-203 -1143 0
-204 -1144 0
-205 -1145 0
-201 -1206 0
-202 -1207 0
-203 -1208 0
-204 -1209 0
-205 -1210 0
-201 -1216 0
-202 -1217 0
-203 -1218 0
-204 -1219 0
-205 -1220 0
-201 -1311 0
-202 -1312 0
-203 -1313 0
-204 -1314 0
-205 -1315 0
-201 -3681 0
-202 -3682 0
-203 -3683 0
-204 -3684 0
-205 -3685 0
-206 -311 0
-207 -312 0
-208 -313 0
-209 -314 0
-210 -315 0
-206 -326 0
-207 -327 0
-208 -328 0
-209 -329 0
-210 -330 0
-206 -461 0
-207 -462 0
-208 -463 0
-209 -464 0
-210 -465 0
-206 -486 0
-207 -487 0
-208 -488 0
-209 -489 0
-210 -490 0
-206 -781 0
-207 -782 0
-208 -783 0
-209 -784 0
-210 -785 0
-206 -846 0
-207 -847 0
-208 -848 0
-209 -849 0
-210 -850 0
-206 -916 0
-207 -917 0
-208 -918 0
-209 -919 0
-210 -920 0
-206 -1126 0
-207 -1127 0
-208 -1128 0
-209 -1129 0
-210 -1130 0
-206 -1231 0
-207 -1232 0
-208 -1233 0
-209 -1234 0
-210 -1235 0
-206 -1286 0
-207 -1287 0
-208 -1288 0
-209 -1289 0
-210 -1290 0
-206 -1316 0
-207 -1317 0
-208 -1318 0
-209 -1319 0
-210 -1320 0
-211 -316 0
-212 -317 0
-213 -318 0
-214 -319 0
-215 -320 0
-211 -331 0
-212 -332 0
-213 -333 0
-214 -334 0
-215 -335 0
-211 -471 0
-212 -472 0
-213 -473 0
-214 -474 0
-215 -475 0
-211 -496 0
-212 -497 0
-213 -498 0
-214 -499 0
-215 -500 0
-211 -791 0
-212 -792 0
-213 -793 0
-214 -794 0
-215 -795 0
-211 -856 0
-212 -857 0
-213 -858 0
-214 -859 0
-215 -860 0
-211 -881 0
-212 -882 0
-213 -883 0
-214 -884 0
-215 -885 0
-211 -1151 0
-212 -1152 0
-213 -1153 0
-214 -1154 0
-215 -1155 0
-211 -1236 0
-212 -1237 0
-213 -1238 0
-214 -1239 0
-215 -1240 0
-211 -1281 0
-212 -1282 0
-213 -1283 0
-214 -1284 0
-215 -1285 0
-211 -1321 0
-212 -1322 0
-213 -1323 0
-214 -1324 0
-215 -1325 0
-211 -3691 0
-212 -3692 0
-213 -3693 0
-214 -3694 0
-215 -3695 0
-216 -321 0
-217 -322 0
-218 -323 0
-219 -324 0
-220 -325 0
-216 -336 0
-217 -337 0
-218 -338 0
-219 -339 0
-220 -340 0
-216 -366 0
-217 -367 0
-218 -368 0
-219 -369 0
-220 -370 0
-216 -476 0
-217 -477 0
-218 -478 0
-219 -479 0
-220 -480 0
-216 -746 0
-217 -747 0
-218 -748 0
-219 -749 0
-220 -750 0
-216 -796 0
-217 -797 0
-218 -798 0
-219 -799 0
-220 -800 0
-216 -861 0
-217 -862 0
-218 -863 0
-219 -864 0
-220 -865 0
-216 -886 0
-217 -887 0
-218 -888 0
-219 -889 0
-220 -890 0
-216 -1136 0
-217 -1137 0
-218 -1138 0
-219 -1139 0
-220 -1140 0
-216 -1161 0
-217 -1162 0
-218 -1163 0
-219 -1164 0
-220 -1165 0
-216 -1216 0
-217 -1217 0
-218 -1218 0
-219 -1219 0
-220 -1220 0
-216 -1241 0
-217 -1242 0
-218 -1243 0
-219 -1244 0
-220 -1245 0
-216 -1326 0
-217 -1327 0
-218 -1328 0
-219 -1329 0
-220 -1330 0
-216 -3701 0
-217 -3702 0
-218 -3703 0
-219 -3704 0
-220 -3705 0
-221 -261 0
-222 -262 0
-223 -263 0
-224 -264 0
-225 -265 0
-221 -336 0
-222 -337 0
-223 -338 0
-224 -339 0
-225 -340 0
-221 -351 0
-222 -352 0
-223 -353 0
-224 -354 0
-225 -355 0
-221 -441 0
-222 -442 0
-223 -443 0
-224 -444 0
-225 -445 0
-221 -761 0
-222 -762 0
-223 -763 0
-224 -764 0
-225 -765 0
-221 -811 0
-222 -812 0
-223 -813 0
-224 -814 0
-225 -815 0
-221 -871 0
-222 -872 0
-223 -873 0
-224 -874 0
-225 -875 0
-221 -896 0
-222 -897 0
-223 -898 0
-224 -899 0
-225 -900 0
-221 -1146 0
-222 -1147 0
-223 -1148 0
-224 -1149 0
-225 -1150 0
-221 -1171 0
-222 -1172 0
-223 -1173 0
-224 -1174 0
-225 -1175 0
-221 -1221 0
-222 -1222 0
-223 -1223 0
-224 -1224 0
-225 -1225 0
-221 -1246 0
-222 -1247 0
-223 -1248 0
-224 -1249 0
-225 -1250 0
-221 -1331 0
-222 -1332 0
-223 -1333 0
-224 -1334 0
-225 -1335 0
-221 -3711 0
-222 -3712 0
-223 -3713 0
-224 -3714 0
-225 -3715 0
-226 -266 0
-227 -267 0
-228 -268 0
-229 -269 0
-230 -270 0
-226 -341 0
-227 -342 0
-228 -343 0
-229 -344 0
-230 -345 0
-226 -446 0
-227 -447 0
-228 -448 0
-229 -449 0
-230 -450 0
-226 -481 0
-227 -482 0
-228 -483 0
-229 -484 0
-230 -485 0
-226 -766 0
-227 -767 0
-228 -768 0
-229 -769 0
-230 -770 0
-226 -821 0
-227 -822 0
-228 -823 0
-229 -824 0
-230 -825 0
-226 -876 0
-227 -877 0
-228 -878 0
-229 -879 0
-230 -880 0
-226 -1156 0
-227 -1157 0
-228 -1158 0
-229 -1159 0
-230 -1160 0
-226 -1251 0
-227 -1252 0
-228 -1253 0
-229 -1254 0
-230 -1255 0
-226 -1296 0
-227 -1297 0
-228 -1298 0
-229 -1299 0
-230 -1300 0
-226 -1336 0
-227 -1337 0
-228 -1338 0
-229 -1339 0
-230 -1340 0
-231 -271 0
-232 -272 0
-233 -273 0
-234 -274 0
-235 -275 0
-231 -346 0
-232 -347 0
-233 -348 0
-234 -349 0
-235 -350 0
-231 -456 0
-232 -457 0
-233 -458 0
-234 -459 0
-235 -460 0
-231 -491 0
-232 -492 0
-233 -493 0
-234 -494 0
-235 -495 0
-231 -776 0
-232 -777 0
-233 -778 0
-234 -779 0
-235 -780 0
-231 -831 0
-232 -832 0
-233 -833 0
-234 -834 0
-235 -835 0
-231 -901 0
-232 -902 0
-233 -903 0
-234 -904 0
-235 -905 0
-231 -1181 0
-232 -1182 0
-233 -1183 0
-234 -1184 0
-235 -1185 0
-231 -1256 0
-232 -1257 0
-233 -1258 0
-234 -1259 0
-235 -1260 0
-231 -1291 0
-232 -1292 0
-233 -1293 0
-234 -1294 0
-235 -1295 0
-231 -1341 0
-232 -1342 0
-233 -1343 0
-234 -1344 0
-235 -1345 0
-231 -3721 0
-232 -3722 0
-233 -3723 0
-234 -3724 0
-235 -3725 0
-236 -261 0
-237 -262 0
-238 -263 0
-239 -264 0
-240 -265 0
-236 -276 0
-237 -277 0
-238 -278 0
-239 -279 0
-240 -280 0
-236 -376 0
-237 -377 0
-238 -378 0
-239 -379 0
-240 -380 0
-236 -496 0
-237 -497 0
-238 -498 0
-239 -499 0
-240 -500 0
-236 -786 0
-237 -787 0
-238 -788 0
-239 -789 0
-240 -790 0
-236 -836 0
-237 -837 0
-238 -838 0
-239 -839 0
-240 -840 0
-236 -881 0
-237 -882 0
-238 -883 0
-239 -884 0
-240 -885 0
-236 -906 0
-237 -907 0
-238 -908 0
-239 -909 0
-240 -910 0
-236 -1166 0
-237 -1167 0
-238 -1168 0
-239 -1169 0
-240 -1170 0
-236 -1191 0
-237 -1192 0
-238 -1193 0
-239 -1194 0
-240 -1195 0
-236 -1221 0
-237 -1222 0
-238 -1223 0
-239 -1224 0
-240 -1225 0
-236 -1261 0
-237 -1262 0
-238 -1263 0
-239 -1264 0
-240 -1265 0
-236 -1346 0
-237 -1347 0
-238 -1348 0
-239 -1349 0
-240 -1350 0
-236 -3731 0
-237 -3732 0
-238 -3733 0
-239 -3734 0
-240 -3735 0
-241 -276 0
-242 -277 0
-243 -278 0
-244 -279 0
-245 -280 0
-241 -291 0
-242 -292 0
-243 -293 0
-244 -294 0
-245 -295 0
-241 -361 0
-242 -362 0
-243 -363 0
-244 -364 0
-245 -365 0
-241 -461 0
-242 -462 0
-243 -463 0
-244 -464 0
-245 -465 0
-241 -801 0
-242 -802 0
-243 -803 0
-244 -804 0
-245 -805 0
-241 -851 0
-242 -852 0
-243 -853 0
-244 -854 0
-245 -855 0
-241 -891 0
-242 -892 0
-243 -893 0
-244 -894 0
-245 -895 0
-241 -916 0
-242 -917 0
-243 -918 0
-244 -919 0
-245 -920 0
-241 -1176 0
-242 -1177 0
-243 -1178 0
-244 -1179 0
-245 -1180 0
-241 -1201 0
-242 -1202 0
-243 -1203 0
-244 -1204 0
-245 -1205 0
-241 -1226 0
-242 -1227 0
-243 -1228 0
-244 -1229 0
-245 -1230 0
-241 -1266 0
-242 -1267 0
-243 -1268 0
-244 -1269 0
-245 -1270 0
-241 -1351 0
-242 -1352 0
-243 -1353 0
-244 -1354 0
-245 -1355 0
-241 -3741 0
-242 -3742 0
-243 -3743 0
-244 -3744 0
-245 -3745 0
-246 -281 0
-247 -282 0
-248 -283 0
-249 -284 0
-250 -285 0
-246 -296 0
-247 -297 0
-248 -298 0
-249 -299 0
-250 -300 0
-246 -441 0
-247 -442 0
-248 -443 0
-249 -444 0
-250 -445 0
-246 -466 0
-247 -467 0
-248 -468 0
-249 -469 0
-250 -470 0
-246 -741 0
-247 -742 0
-248 -743 0
-249 -744 0
-250 -745 0
-246 -806 0
-247 -807 0
-248 -808 0
-249 -809 0
-250 -810 0
-246 -896 0
-247 -897 0
-248 -898 0
-249 -899 0
-250 -900 0
-246 -1186 0
-247 -1187 0
-248 -1188 0
-249 -1189 0
-250 -1190 0
-246 -1271 0
-247 -1272 0
-248 -1273 0
-249 -1274 0
-250 -1275 0
-246 -1306 0
-247 -1307 0
-248 -1308 0
-249 -1309 0
-250 -1310 0
-246 -1356 0
-247 -1357 0
-248 -1358 0
-249 -1359 0
-250 -1360 0
-251 -286 0
-252 -287 0
-253 -288 0
-254 -289 0
-255 -290 0
-251 -301 0
-252 -302 0
-253 -303 0
-254 -304 0
-255 -305 0
-251 -451 0
-252 -452 0
-253 -453 0
-254 -454 0
-255 -455 0
-251 -476 0
-252 -477 0
-253 -478 0
-254 -479 0
-255 -480 0
-251 -751 0
-252 -752 0
-253 -753 0
-254 -754 0
-255 -755 0
-251 -816 0
-252 -817 0
-253 -818 0
-254 -819 0
-255 -820 0
-251 -861 0
-252 -862 0
-253 -863 0
-254 -864 0
-255 -865 0
-251 -1211 0
-252 -1212 0
-253 -1213 0
-254 -1214 0
-255 -1215 0
-251 -1276 0
-252 -1277 0
-253 -1278 0
-254 -1279 0
-255 -1280 0
-251 -1301 0
-252 -1302 0
-253 -1303 0
-254 -1304 0
-255 -1305 0
-251 -1361 0
-252 -1362 0
-253 -1363 0
-254 -1364 0
-255 -1365 0
-251 -3751 0
-252 -3752 0
-253 -3753 0
-254 -3754 0
-255 -3755 0
-256 -291 0
-257 -292 0
-258 -293 0
-259 -294 0
-260 -295 0
-256 -306 0
-257 -307 0
-258 -308 0
-259 -309 0
-260 -310 0
-256 -356 0
-257 -357 0
-258 -358 0
-259 -359 0
-260 -360 0
-256 -456 0
-257 -457 0
-258 -458 0
-259 -459 0
-260 -460 0
-256 -756 0
-257 -757 0
-258 -758 0
-259 -759 0
-260 -760 0
-256 -826 0
-257 -827 0
-258 -828 0
-259 -829 0
-260 -830 0
-256 -866 0
-257 -867 0
-258 -868 0
-259 -869 0
-260 -870 0
-256 -901 0
-257 -902 0
-258 -903 0
-259 -904 0
-260 -905 0
-256 -1131 0
-257 -1132 0
-258 -1133 0
-259 -1134 0
-260 -1135 0
-256 -1196 0
-257 -1197 0
-258 -1198 0
-259 -1199 0
-260 -1200 0
-256 -1226 0
-257 -1227 0
-258 -1228 0
-259 -1229 0
-260 -1230 0
-256 -1366 0
-257 -1367 0
-258 -1368 0
-259 -1369 0
-260 -1370 0
-256 -3671 0
-257 -3672 0
-258 -3673 0
-259 -3674 0
-260 -3675 0
-261 -291 0
-262 -292 0
-263 -293 0
-264 -294 0
-265 -295 0
-261 -321 0
-262 -322 0
-263 -323 0
-264 -324 0
-265 -325 0
-261 -581 0
-262 -582 0
-263 -583 0
-264 -584 0
-265 -585 0
-261 -616 0
-262 -617 0
-263 -618 0
-264 -619 0
-265 -620 0
-261 -681 0
-262 -682 0
-263 -683 0
-264 -684 0
-265 -685 0
-261 -716 0
-262 -717 0
-263 -718 0
-264 -719 0
-265 -720 0
-261 -761 0
-262 -762 0
-263 -763 0
-264 -764 0
-265 -765 0
-261 -836 0
-262 -837 0
-263 -838 0
-264 -839 0
-265 -840 0
-261 -1011 0
-262 -1012 0
-263 -1013 0
-264 -1014 0
-265 -1015 0
-261 -1071 0
-262 -1072 0
-263 -1073 0
-264 -1074 0
-265 -1075 0
-261 -1136 0
-262 -1137 0
-263 -1138 0
-264 -1139 0
-265 -1140 0
-261 -1201 0
-262 -1202 0
-263 -1203 0
-264 -1204 0
-265 -1205 0
-261 -1311 0
-262 -1312 0
-263 -1313 0
-264 -1314 0
-265 -1315 0
-261 -1366 0
-262 -1367 0
-263 -1368 0
-264 -1369 0
-265 -1370 0
-261 -1371 0
-262 -1372 0
-263 -1373 0
-264 -1374 0
-265 -1375 0
-261 -1426 0
-262 -1427 0
-263 -1428 0
-264 -1429 0
-265 -1430 0
-261 -1431 0
-262 -1432 0
-263 -1433 0
-264 -1434 0
-265 -1435 0
-261 -1486 0
-262 -1487 0
-263 -1488 0
-264 -1489 0
-265 -1490 0
-261 -3701 0
-262 -3702 0
-263 -3703 0
-264 -3704 0
-265 -3705 0
-266 -296 0
-267 -297 0
-268 -298 0
-269 -299 0
-270 -300 0
-266 -326 0
-267 -327 0
-268 -328 0
-269 -329 0
-270 -330 0
-266 -481 0
-267 -482 0
-268 -483 0
-269 -484 0
-270 -485 0
-266 -686 0
-267 -687 0
-268 -688 0
-269 -689 0
-270 -690 0
-266 -766 0
-267 -767 0
-268 -768 0
-269 -769 0
-270 -770 0
-266 -1016 0
-267 -1017 0
-268 -1018 0
-269 -1019 0
-270 -1020 0
-266 -1076 0
-267 -1077 0
-268 -1078 0
-269 -1079 0
-270 -1080 0
-266 -1316 0
-267 -1317 0
-268 -1318 0
-269 -1319 0
-270 -1320 0
-266 -1431 0
-267 -1432 0
-268 -1433 0
-269 -1434 0
-270 -1435 0
-271 -301 0
-272 -302 0
-273 -303 0
-274 -304 0
-275 -305 0
-271 -331 0
-272 -332 0
-273 -333 0
-274 -334 0
-275 -335 0
-271 -491 0
-272 -492 0
-273 -493 0
-274 -494 0
-275 -495 0
-271 -591 0
-272 -592 0
-273 -593 0
-274 -594 0
-275 -595 0
-271 -721 0
-272 -722 0
-273 -723 0
-274 -724 0
-275 -725 0
-271 -776 0
-272 -777 0
-273 -778 0
-274 -779 0
-275 -780 0
-271 -846 0
-272 -847 0
-273 -848 0
-274 -849 0
-275 -850 0
-271 -1021 0
-272 -1022 0
-273 -1023 0
-274 -1024 0
-275 -1025 0
-271 -1081 0
-272 -1082 0
-273 -1083 0
-274 -1084 0
-275 -1085 0
-271 -1211 0
-272 -1212 0
-273 -1213 0
-274 -1214 0
-275 -1215 0
-271 -1321 0
-272 -1322 0
-273 -1323 0
-274 -1324 0
-275 -1325 0
-271 -1436 0
-272 -1437 0
-273 -1438 0
-274 -1439 0
-275 -1440 0
-276 -306 0
-277 -307 0
-278 -308 0
-279 -309 0
-280 -310 0
-276 -336 0
-277 -337 0
-278 -338 0
-279 -339 0
-280 -340 0
-276 -461 0
-277 -462 0
-278 -463 0
-279 -464 0
-280 -465 0
-276 -496 0
-277 -497 0
-278 -498 0
-279 -499 0
-280 -500 0
-276 -691 0
-277 -692 0
-278 -693 0
-279 -694 0
-280 -695 0
-276 -726 0
-277 -727 0
-278 -728 0
-279 -729 0
-280 -730 0
-276 -786 0
-277 -787 0
-278 -788 0
-279 -789 0
-280 -790 0
-276 -851 0
-277 -852 0
-278 -853 0
-279 -854 0
-280 -855 0
-276 -996 0
-277 -997 0
-278 -998 0
-279 -999 0
-280 -1000 0
-276 -1026 0
-277 -1027 0
-278 -1028 0
-279 -1029 0
-280 -1030 0
-276 -1131 0
-277 -1132 0
-278 -1133 0
-279 -1134 0
-280 -1135 0
-276 -1146 0
-277 -1147 0
-278 -1148 0
-279 -1149 0
-280 -1150 0
-276 -1231 0
-277 -1232 0
-278 -1233 0
-279 -1234 0
-280 -1235 0
-276 -1236 0
-277 -1237 0
-278 -1238 0
-279 -1239 0
-280 -1240 0
-276 -1311 0
-277 -1312 0
-278 -1313 0
-279 -1314 0
-280 -1315 0
-276 -1326 0
-277 -1327 0
-278 -1328 0
-279 -1329 0
-280 -1330 0
-276 -1376 0
-277 -1377 0
-278 -1378 0
-279 -1379 0
-280 -1380 0
-276 -1381 0
-277 -1382 0
-278 -1383 0
-279 -1384 0
-280 -1385 0
-276 -3711 0
-277 -3712 0
-278 -3713 0
-279 -3714 0
-280 -3715 0
-281 -311 0
-282 -312 0
-283 -313 0
-284 -314 0
-285 -315 0
-281 -341 0
-282 -342 0
-283 -343 0
-284 -344 0
-285 -345 0
-281 -466 0
-282 -467 0
-283 -468 0
-284 -469 0
-285 -470 0
-281 -696 0
-282 -697 0
-283 -698 0
-284 -699 0
-285 -700 0
-281 -741 0
-282 -742 0
-283 -743 0
-284 -744 0
-285 -745 0
-281 -791 0
-282 -792 0
-283 -793 0
-284 -794 0
-285 -795 0
-281 -1001 0
-282 -1002 0
-283 -1003 0
-284 -1004 0
-285 -1005 0
-281 -1031 0
-282 -1032 0
-283 -1033 0
-284 -1034 0
-285 -1035 0
-281 -1156 0
-282 -1157 0
-283 -1158 0
-284 -1159 0
-285 -1160 0
-281 -1241 0
-282 -1242 0
-283 -1243 0
-284 -1244 0
-285 -1245 0
-281 -1316 0
-282 -1317 0
-283 -1318 0
-284 -1319 0
-285 -1320 0
-281 -1441 0
-282 -1442 0
-283 -1443 0
-284 -1444 0
-285 -1445 0
-286 -316 0
-287 -317 0
-288 -318 0
-289 -319 0
-290 -320 0
-286 -346 0
-287 -347 0
-288 -348 0
-289 -349 0
-290 -350 0
-286 -476 0
-287 -477 0
-288 -478 0
-289 -479 0
-290 -480 0
-286 -671 0
-287 -672 0
-288 -673 0
-289 -674 0
-290 -675 0
-286 -751 0
-287 -752 0
-288 -753 0
-289 -754 0
-290 -755 0
-286 -1006 0
-287 -1007 0
-288 -1008 0
-289 -1009 0
-290 -1010 0
-286 -1036 0
-287 -1037 0
-288 -1038 0
-289 -1039 0
-290 -1040 0
-286 -1321 0
-287 -1322 0
-288 -1323 0
-289 -1324 0
-290 -1325 0
-286 -1446 0
-287 -1447 0
-288 -1448 0
-289 -1449 0
-290 -1450 0
-286 -3721 0
-287 -3722 0
-288 -3723 0
-289 -3724 0
-290 -3725 0
-291 -321 0
-292 -322 0
-293 -323 0
-294 -324 0
-295 -325 0
-291 -576 0
-292 -577 0
-293 -578 0
-294 -579 0
-295 -580 0
-291 -601 0
-292 -602 0
-293 -603 0
-294 -604 0
-295 -605 0
-291 -676 0
-292 -677 0
-293 -678 0
-294 -679 0
-295 -680 0
-291 -701 0
-292 -702 0
-293 -703 0
-294 -704 0
-295 -705 0
-291 -756 0
-292 -757 0
-293 -758 0
-294 -759 0
-295 -760 0
-291 -801 0
-292 -802 0
-293 -803 0
-294 -804 0
-295 -805 0
-291 -1011 0
-292 -1012 0
-293 -1013 0
-294 -1014 0
-295 -1015 0
-291 -1041 0
-292 -1042 0
-293 -1043 0
-294 -1044 0
-295 -1045 0
-291 -1141 0
-292 -1142 0
-293 -1143 0
-294 -1144 0
-295 -1145 0
-291 -1166 0
-292 -1167 0
-293 -1168 0
-294 -1169 0
-295 -1170 0
-291 -1326 0
-292 -1327 0
-293 -1328 0
-294 -1329 0
-295 -1330 0
-291 -1331 0
-292 -1332 0
-293 -1333 0
-294 -1334 0
-295 -1335 0
-291 -1386 0
-292 -1387 0
-293 -1388 0
-294 -1389 0
-295 -1390 0
-291 -1391 0
-292 -1392 0
-293 -1393 0
-294 -1394 0
-295 -1395 0
-291 -1446 0
-292 -1447 0
-293 -1448 0
-294 -1449 0
-295 -1450 0
-291 -1451 0
-292 -1452 0
-293 -1453 0
-294 -1454 0
-295 -1455 0
-291 -3731 0
-292 -3732 0
-293 -3733 0
-294 -3734 0
-295 -3735 0
-296 -326 0
-297 -327 0
-298 -328 0
-299 -329 0
-300 -330 0
-296 -441 0
-297 -442 0
-298 -443 0
-299 -444 0
-300 -445 0
-296 -706 0
-297 -707 0
-298 -708 0
-299 -709 0
-300 -710 0
-296 -806 0
-297 -807 0
-298 -808 0
-299 -809 0
-300 -810 0
-296 -1016 0
-297 -1017 0
-298 -1018 0
-299 -1019 0
-300 -1020 0
-296 -1046 0
-297 -1047 0
-298 -1048 0
-299 -1049 0
-300 -1050 0
-296 -1336 0
-297 -1337 0
-298 -1338 0
-299 -1339 0
-300 -1340 0
-296 -1451 0
-297 -1452 0
-298 -1453 0
-299 -1454 0
-300 -1455 0
-301 -331 0
-302 -332 0
-303 -333 0
-304 -334 0
-305 -335 0
-301 -451 0
-302 -452 0
-303 -453 0
-304 -454 0
-305 -455 0
-301 -611 0
-302 -612 0
-303 -613 0
-304 -614 0
-305 -615 0
-301 -681 0
-302 -682 0
-303 -683 0
-304 -684 0
-305 -685 0
-301 -766 0
-302 -767 0
-303 -768 0
-304 -769 0
-305 -770 0
-301 -816 0
-302 -817 0
-303 -818 0
-304 -819 0
-305 -820 0
-301 -1021 0
-302 -1022 0
-303 -1023 0
-304 -1024 0
-305 -1025 0
-301 -1051 0
-302 -1052 0
-303 -1053 0
-304 -1054 0
-305 -1055 0
-301 -1151 0
-302 -1152 0
-303 -1153 0
-304 -1154 0
-305 -1155 0
-301 -1246 0
-302 -1247 0
-303 -1248 0
-304 -1249 0
-305 -1250 0
-301 -1341 0
-302 -1342 0
-303 -1343 0
-304 -1344 0
-305 -1345 0
-301 -1456 0
-302 -1457 0
-303 -1458 0
-304 -1459 0
-305 -1460 0
-306 -336 0
-307 -337 0
-308 -338 0
-309 -339 0
-310 -340 0
-306 -456 0
-307 -457 0
-308 -458 0
-309 -459 0
-310 -460 0
-306 -481 0
-307 -482 0
-308 -483 0
-309 -484 0
-310 -485 0
-306 -686 0
-307 -687 0
-308 -688 0
-309 -689 0
-310 -690 0
-306 -711 0
-307 -712 0
-308 -713 0
-309 -714 0
-310 -715 0
-306 -771 0
-307 -772 0
-308 -773 0
-309 -774 0
-310 -775 0
-306 -826 0
-307 -827 0
-308 -828 0
-309 -829 0
-310 -830 0
-306 -1026 0
-307 -1027 0
-308 -1028 0
-309 -1029 0
-310 -1030 0
-306 -1056 0
-307 -1057 0
-308 -1058 0
-309 -1059 0
-310 -1060 0
-306 -1161 0
-307 -1162 0
-308 -1163 0
-309 -1164 0
-310 -1165 0
-306 -1176 0
-307 -1177 0
-308 -1178 0
-309 -1179 0
-310 -1180 0
-306 -1251 0
-307 -1252 0
-308 -1253 0
-309 -1254 0
-310 -1255 0
-306 -1256 0
-307 -1257 0
-308 -1258 0
-309 -1259 0
-310 -1260 0
-306 -1331 0
-307 -1332 0
-308 -1333 0
-309 -1334 0
-310 -1335 0
-306 -1346 0
-307 -1347 0
-308 -1348 0
-309 -1349 0
-310 -1350 0
-306 -1396 0
-307 -1397 0
-308 -1398 0
-309 -1399 0
-310 -1400 0
-306 -1401 0
-307 -1402 0
-308 -1403 0
-309 -1404 0
-310 -1405 0
-306 -3741 0
-307 -3742 0
-308 -3743 0
-309 -3744 0
-310 -3745 0
-311 -341 0
-312 -342 0
-313 -343 0
-314 -344 0
-315 -345 0
-311 -486 0
-312 -487 0
-313 -488 0
-314 -489 0
-315 -490 0
-311 -586 0
-312 -587 0
-313 -588 0
-314 -589 0
-315 -590 0
-311 -716 0
-312 -717 0
-313 -718 0
-314 -719 0
-315 -720 0
-311 -781 0
-312 -782 0
-313 -783 0
-314 -784 0
-315 -785 0
-311 -831 0
-312 -832 0
-313 -833 0
-314 -834 0
-315 -835 0
-311 -1031 0
-312 -1032 0
-313 -1033 0
-314 -1034 0
-315 -1035 0
-311 -1061 0
-312 -1062 0
-313 -1063 0
-314 -1064 0
-315 -1065 0
-311 -1186 0
-312 -1187 0
-313 -1188 0
-314 -1189 0
-315 -1190 0
-311 -1261 0
-312 -1262 0
-313 -1263 0
-314 -1264 0
-315 -1265 0
-311 -1336 0
-312 -1337 0
-313 -1338 0
-314 -1339 0
-315 -1340 0
-311 -1461 0
-312 -1462 0
-313 -1463 0
-314 -1464 0
-315 -1465 0
-316 -346 0
-317 -347 0
-318 -348 0
-319 -349 0
-320 -350 0
-316 -496 0
-317 -497 0
-318 -498 0
-319 -499 0
-320 -500 0
-316 -691 0
-317 -692 0
-318 -693 0
-319 -694 0
-320 -695 0
-316 -791 0
-317 -792 0
-318 -793 0
-319 -794 0
-320 -795 0
-316 -1036 0
-317 -1037 0
-318 -1038 0
-319 -1039 0
-320 -1040 0
-316 -1066 0
-317 -1067 0
-318 -1068 0
-319 -1069 0
-320 -1070 0
-316 -1341 0
-317 -1342 0
-318 -1343 0
-319 -1344 0
-320 -1345 0
-316 -1466 0
-317 -1467 0
-318 -1468 0
-319 -1469 0
-320 -1470 0
-316 -3751 0
-317 -3752 0
-318 -3753 0
-319 -3754 0
-320 -3755 0
-321 -596 0
-322 -597 0
-323 -598 0
-324 -599 0
-325 -600 0
-321 -621 0
-322 -622 0
-323 -623 0
-324 -624 0
-325 -625 0
-321 -696 0
-322 -697 0
-323 -698 0
-324 -699 0
-325 -700 0
-321 -721 0
-322 -722 0
-323 -723 0
-324 -724 0
-325 -725 0
-321 -796 0
-322 -797 0
-323 -798 0
-324 -799 0
-325 -800 0
-321 -841 0
-322 -842 0
-323 -843 0
-324 -844 0
-325 -845 0
-321 -1041 0
-322 -1042 0
-323 -1043 0
-324 -1044 0
-325 -1045 0
-321 -1071 0
-322 -1072 0
-323 -1073 0
-324 -1074 0
-325 -1075 0
-321 -1171 0
-322 -1172 0
-323 -1173 0
-324 -1174 0
-325 -1175 0
-321 -1196 0
-322 -1197 0
-323 -1198 0
-324 -1199 0
-325 -1200 0
-321 -1346 0
-322 -1347 0
-323 -1348 0
-324 -1349 0
-325 -1350 0
-321 -1351 0
-322 -1352 0
-323 -1353 0
-324 -1354 0
-325 -1355 0
-321 -1406 0
-322 -1407 0
-323 -1408 0
-324 -1409 0
-325 -1410 0
-321 -1411 0
-322 -1412 0
-323 -1413 0
-324 -1414 0
-325 -1415 0
-321 -1466 0
-322 -1467 0
-323 -1468 0
-324 -1469 0
-325 -1470 0
-321 -1471 0
-322 -1472 0
-323 -1473 0
-324 -1474 0
-325 -1475 0
-321 -3671 0
-322 -3672 0
-323 -3673 0
-324 -3674 0
-325 -3675 0
-326 -461 0
-327 -462 0
-328 -463 0
-329 -464 0
-330 -465 0
-326 -726 0
-327 -727 0
-328 -728 0
-329 -729 0
-330 -730 0
-326 -846 0
-327 -847 0
-328 -848 0
-329 -849 0
-330 -850 0
-326 -1046 0
-327 -1047 0
-328 -1048 0
-329 -1049 0
-330 -1050 0
-326 -1076 0
-327 -1077 0
-328 -1078 0
-329 -1079 0
-330 -1080 0
-326 -1356 0
-327 -1357 0
-328 -1358 0
-329 -1359 0
-330 -1360 0
-326 -1471 0
-327 -1472 0
-328 -1473 0
-329 -1474 0
-330 -1475 0
-331 -471 0
-332 -472 0
-333 -473 0
-334 -474 0
-335 -475 0
-331 -701 0
-332 -702 0
-333 -703 0
-334 -704 0
-335 -705 0
-331 -806 0
-332 -807 0
-333 -808 0
-334 -809 0
-335 -810 0
-331 -856 0
-332 -857 0
-333 -858 0
-334 -859 0
-335 -860 0
-331 -1051 0
-332 -1052 0
-333 -1053 0
-334 -1054 0
-335 -1055 0
-331 -1081 0
-332 -1082 0
-333 -1083 0
-334 -1084 0
-335 -1085 0
-331 -1181 0
-332 -1182 0
-333 -1183 0
-334 -1184 0
-335 -1185 0
-331 -1266 0
-332 -1267 0
-333 -1268 0
-334 -1269 0
-335 -1270 0
-331 -1361 0
-332 -1362 0
-333 -1363 0
-334 -1364 0
-335 -1365 0
-331 -1476 0
-332 -1477 0
-333 -1478 0
-334 -1479 0
-335 -1480 0
-336 -441 0
-337 -442 0
-338 -443 0
-339 -444 0
-340 -445 0
-336 -476 0
-337 -477 0
-338 -478 0
-339 -479 0
-340 -480 0
-336 -671 0
-337 -672 0
-338 -673 0
-339 -674 0
-340 -675 0
-336 -706 0
-337 -707 0
-338 -708 0
-339 -709 0
-340 -710 0
-336 -746 0
-337 -747 0
-338 -748 0
-339 -749 0
-340 -750 0
-336 -811 0
-337 -812 0
-338 -813 0
-339 -814 0
-340 -815 0
-336 -996 0
-337 -997 0
-338 -998 0
-339 -999 0
-340 -1000 0
-336 -1056 0
-337 -1057 0
-338 -1058 0
-339 -1059 0
-340 -1060 0
-336 -1191 0
-337 -1192 0
-338 -1193 0
-339 -1194 0
-340 -1195 0
-336 -1206 0
-337 -1207 0
-338 -1208 0
-339 -1209 0
-340 -1210 0
-336 -1271 0
-337 -1272 0
-338 -1273 0
-339 -1274 0
-340 -1275 0
-336 -1276 0
-337 -1277 0
-338 -1278 0
-339 -1279 0
-340 -1280 0
-336 -1351 0
-337 -1352 0
-338 -1353 0
-339 -1354 0
-340 -1355 0
-336 -1366 0
-337 -1367 0
-338 -1368 0
-339 -1369 0
-340 -1370 0
-336 -1416 0
-337 -1417 0
-338 -1418 0
-339 -1419 0
-340 -1420 0
-336 -1421 0
-337 -1422 0
-338 -1423 0
-339 -1424 0
-340 -1425 0
-336 -3681 0
-337 -3682 0
-338 -3683 0
-339 -3684 0
-340 -3685 0
-341 -446 0
-342 -447 0
-343 -448 0
-344 -449 0
-345 -450 0
-341 -606 0
-342 -607 0
-343 -608 0
-344 -609 0
-345 -610 0
-341 -676 0
-342 -677 0
-343 -678 0
-344 -679 0
-345 -680 0
-341 -751 0
-342 -752 0
-343 -753 0
-344 -754 0
-345 -755 0
-341 -821 0
-342 -822 0
-343 -823 0
-344 -824 0
-345 -825 0
-341 -1001 0
-342 -1002 0
-343 -1003 0
-344 -1004 0
-345 -1005 0
-341 -1061 0
-342 -1062 0
-343 -1063 0
-344 -1064 0
-345 -1065 0
-341 -1126 0
-342 -1127 0
-343 -1128 0
-344 -1129 0
-345 -1130 0
-341 -1356 0
-342 -1357 0
-343 -1358 0
-344 -1359 0
-345 -1360 0
-341 -1481 0
-342 -1482 0
-343 -1483 0
-344 -1484 0
-345 -1485 0
-346 -456 0
-347 -457 0
-348 -458 0
-349 -459 0
-350 -460 0
-346 -711 0
-347 -712 0
-348 -713 0
-349 -714 0
-350 -715 0
-346 -831 0
-347 -832 0
-348 -833 0
-349 -834 0
-350 -835 0
-346 -1006 0
-347 -1007 0
-348 -1008 0
-349 -1009 0
-350 -1010 0
-346 -1066 0
-347 -1067 0
-348 -1068 0
-349 -1069 0
-350 -1070 0
-346 -1361 0
-347 -1362 0
-348 -1363 0
-349 -1364 0
-350 -1365 0
-346 -1486 0
-347 -1487 0
-348 -1488 0
-349 -1489 0
-350 -1490 0
-346 -3691 0
-347 -3692 0
-348 -3693 0
-349 -3694 0
-350 -3695 0
-351 -396 0
-352 -397 0
-353 -398 0
-354 -399 0
-355 -400 0
-351 -546 0
-352 -547 0
-353 -548 0
-354 -549 0
-355 -550 0
-351 -661 0
-352 -662 0
-353 -663 0
-354 -664 0
-355 -665 0
-351 -871 0
-352 -872 0
-353 -873 0
-354 -874 0
-355 -875 0
-351 -1276 0
-352 -1277 0
-353 -1278 0
-354 -1279 0
-355 -1280 0
-351 -1376 0
-352 -1377 0
-353 -1378 0
-354 -1379 0
-355 -1380 0
-351 -1436 0
-352 -1437 0
-353 -1438 0
-354 -1439 0
-355 -1440 0
-356 -381 0
-357 -382 0
-358 -383 0
-359 -384 0
-360 -385 0
-356 -531 0
-357 -532 0
-358 -533 0
-359 -534 0
-360 -535 0
-356 -656 0
-357 -657 0
-358 -658 0
-359 -659 0
-360 -660 0
-356 -866 0
-357 -867 0
-358 -868 0
-359 -869 0
-360 -870 0
-356 -1086 0
-357 -1087 0
-358 -1088 0
-359 -1089 0
-360 -1090 0
-356 -1251 0
-357 -1252 0
-358 -1253 0
-359 -1254 0
-360 -1255 0
-356 -1381 0
-357 -1382 0
-358 -1383 0
-359 -1384 0
-360 -1385 0
-356 -1441 0
-357 -1442 0
-358 -1443 0
-359 -1444 0
-360 -1445 0
-356 -3086 0
-357 -3087 0
-358 -3088 0
-359 -3089 0
-360 -3090 0
-361 -416 0
-362 -417 0
-363 -418 0
-364 -419 0
-365 -420 0
-361 -506 0
-362 -507 0
-363 -508 0
-364 -509 0
-365 -510 0
-361 -641 0
-362 -642 0
-363 -643 0
-364 -644 0
-365 -645 0
-361 -891 0
-362 -892 0
-363 -893 0
-364 -894 0
-365 -895 0
-361 -1096 0
-362 -1097 0
-363 -1098 0
-364 -1099 0
-365 -1100 0
-361 -1236 0
-362 -1237 0
-363 -1238 0
-364 -1239 0
-365 -1240 0
-361 -1396 0
-362 -1397 0
-363 -1398 0
-364 -1399 0
-365 -1400 0
-361 -1456 0
-362 -1457 0
-363 -1458 0
-364 -1459 0
-365 -1460 0
-366 -401 0
-367 -402 0
-368 -403 0
-369 -404 0
-370 -405 0
-366 -551 0
-367 -552 0
-368 -553 0
-369 -554 0
-370 -555 0
-366 -666 0
-367 -667 0
-368 -668 0
-369 -669 0
-370 -670 0
-366 -886 0
-367 -887 0
-368 -888 0
-369 -889 0
-370 -890 0
-366 -1091 0
-367 -1092 0
-368 -1093 0
-369 -1094 0
-370 -1095 0
-366 -1271 0
-367 -1272 0
-368 -1273 0
-369 -1274 0
-370 -1275 0
-366 -1401 0
-367 -1402 0
-368 -1403 0
-369 -1404 0
-370 -1405 0
-366 -1461 0
-367 -1462 0
-368 -1463 0
-369 -1464 0
-370 -1465 0
-366 -3046 0
-367 -3047 0
-368 -3048 0
-369 -3049 0
-370 -3050 0
-371 -436 0
-372 -437 0
-373 -438 0
-374 -439 0
-375 -440 0
-371 -526 0
-372 -527 0
-373 -528 0
-374 -529 0
-375 -530 0
-371 -651 0
-372 -652 0
-373 -653 0
-374 -654 0
-375 -655 0
-371 -911 0
-372 -912 0
-373 -913 0
-374 -914 0
-375 -915 0
-371 -1101 0
-372 -1102 0
-373 -1103 0
-374 -1104 0
-375 -1105 0
-371 -1256 0
-372 -1257 0
-373 -1258 0
-374 -1259 0
-375 -1260 0
-371 -1416 0
-372 -1417 0
-373 -1418 0
-374 -1419 0
-375 -1420 0
-371 -1476 0
-372 -1477 0
-373 -1478 0
-374 -1479 0
-375 -1480 0
-376 -421 0
-377 -422 0
-378 -423 0
-379 -424 0
-380 -425 0
-376 -511 0
-377 -512 0
-378 -513 0
-379 -514 0
-380 -515 0
-376 -646 0
-377 -647 0
-378 -648 0
-379 -649 0
-380 -650 0
-376 -906 0
-377 -907 0
-378 -908 0
-379 -909 0
-380 -910 0
-376 -1231 0
-377 -1232 0
-378 -1233 0
-379 -1234 0
-380 -1235 0
-376 -1421 0
-377 -1422 0
-378 -1423 0
-379 -1424 0
-380 -1425 0
-376 -1481 0
-377 -1482 0
-378 -1483 0
-379 -1484 0
-380 -1485 0
-376 -3066 0
-377 -3067 0
-378 -3068 0
-379 -3069 0
-380 -3070 0
-381 -546 0
-382 -547 0
-383 -548 0
-384 -549 0
-385 -550 0
-381 -581 0
-382 -582 0
-383 -583 0
-384 -584 0
-385 -585 0
-381 -946 0
-382 -947 0
-383 -948 0
-384 -949 0
-385 -950 0
-381 -986 0
-382 -987 0
-383 -988 0
-384 -989 0
-385 -990 0
-381 -1316 0
-382 -1317 0
-383 -1318 0
-384 -1319 0
-385 -1320 0
-381 -1366 0
-382 -1367 0
-383 -1368 0
-384 -1369 0
-385 -1370 0
-381 -1376 0
-382 -1377 0
-383 -1378 0
-384 -1379 0
-385 -1380 0
-381 -1491 0
-382 -1492 0
-383 -1493 0
-384 -1494 0
-385 -1495 0
-381 -3271 0
-382 -3272 0
-383 -3273 0
-384 -3274 0
-385 -3275 0
-386 -521 0
-387 -522 0
-388 -523 0
-389 -524 0
-390 -525 0
-386 -591 0
-387 -592 0
-388 -593 0
-389 -594 0
-390 -595 0
-386 -736 0
-387 -737 0
-388 -738 0
-389 -739 0
-390 -740 0
-386 -951 0
-387 -952 0
-388 -953 0
-389 -954 0
-390 -955 0
-386 -991 0
-387 -992 0
-388 -993 0
-389 -994 0
-390 -995 0
-386 -1326 0
-387 -1327 0
-388 -1328 0
-389 -1329 0
-390 -1330 0
-386 -1371 0
-387 -1372 0
-388 -1373 0
-389 -1374 0
-390 -1375 0
-386 -1521 0
-387 -1522 0
-388 -1523 0
-389 -1524 0
-390 -1525 0
-386 -3076 0
-387 -3077 0
-388 -3078 0
-389 -3079 0
-390 -3080 0
-391 -556 0
-392 -557 0
-393 -558 0
-394 -559 0
-395 -560 0
-391 -936 0
-392 -937 0
-393 -938 0
-394 -939 0
-395 -940 0
-391 -956 0
-392 -957 0
-393 -958 0
-394 -959 0
-395 -960 0
-391 -1311 0
-392 -1312 0
-393 -1313 0
-394 -1314 0
-395 -1315 0
-391 -1386 0
-392 -1387 0
-393 -1388 0
-394 -1389 0
-395 -1390 0
-391 -1526 0
-392 -1527 0
-393 -1528 0
-394 -1529 0
-395 -1530 0
-396 -531 0
-397 -532 0
-398 -533 0
-399 -534 0
-400 -535 0
-396 -576 0
-397 -577 0
-398 -578 0
-399 -579 0
-400 -580 0
-396 -941 0
-397 -942 0
-398 -943 0
-399 -944 0
-400 -945 0
-396 -961 0
-397 -962 0
-398 -963 0
-399 -964 0
-400 -965 0
-396 -1321 0
-397 -1322 0
-398 -1323 0
-399 -1324 0
-400 -1325 0
-396 -1331 0
-397 -1332 0
-398 -1333 0
-399 -1334 0
-400 -1335 0
-396 -1381 0
-397 -1382 0
-398 -1383 0
-399 -1384 0
-400 -1385 0
-396 -1496 0
-397 -1497 0
-398 -1498 0
-399 -1499 0
-400 -1500 0
-396 -3086 0
-397 -3087 0
-398 -3088 0
-399 -3089 0
-400 -3090 0
-401 -506 0
-402 -507 0
-403 -508 0
-404 -509 0
-405 -510 0
-401 -601 0
-402 -602 0
-403 -603 0
-404 -604 0
-405 -605 0
-401 -946 0
-402 -947 0
-403 -948 0
-404 -949 0
-405 -950 0
-401 -966 0
-402 -967 0
-403 -968 0
-404 -969 0
-405 -970 0
-401 -1326 0
-402 -1327 0
-403 -1328 0
-404 -1329 0
-405 -1330 0
-401 -1336 0
-402 -1337 0
-403 -1338 0
-404 -1339 0
-405 -1340 0
-401 -1396 0
-402 -1397 0
-403 -1398 0
-404 -1399 0
-405 -1400 0
-401 -1501 0
-402 -1502 0
-403 -1503 0
-404 -1504 0
-405 -1505 0
-406 -541 0
-407 -542 0
-408 -543 0
-409 -544 0
-410 -545 0
-406 -611 0
-407 -612 0
-408 -613 0
-409 -614 0
-410 -615 0
-406 -951 0
-407 -952 0
-408 -953 0
-409 -954 0
-410 -955 0
-406 -971 0
-407 -972 0
-408 -973 0
-409 -974 0
-410 -975 0
-406 -1346 0
-407 -1347 0
-408 -1348 0
-409 -1349 0
-410 -1350 0
-406 -1391 0
-407 -1392 0
-408 -1393 0
-409 -1394 0
-410 -1395 0
-406 -1531 0
-407 -1532 0
-408 -1533 0
-409 -1534 0
-410 -1535 0
-406 -3096 0
-407 -3097 0
-408 -3098 0
-409 -3099 0
-410 -3100 0
-411 -516 0
-412 -517 0
-413 -518 0
-414 -519 0
-415 -520 0
-411 -586 0
-412 -587 0
-413 -588 0
-414 -589 0
-415 -590 0
-411 -956 0
-412 -957 0
-413 -958 0
-414 -959 0
-415 -960 0
-411 -976 0
-412 -977 0
-413 -978 0
-414 -979 0
-415 -980 0
-411 -1331 0
-412 -1332 0
-413 -1333 0
-414 -1334 0
-415 -1335 0
-411 -1406 0
-412 -1407 0
-413 -1408 0
-414 -1409 0
-415 -1410 0
-411 -1536 0
-412 -1537 0
-413 -1538 0
-414 -1539 0
-415 -1540 0
-416 -551 0
-417 -552 0
-418 -553 0
-419 -554 0
-420 -555 0
-416 -596 0
-417 -597 0
-418 -598 0
-419 -599 0
-420 -600 0
-416 -961 0
-417 -962 0
-418 -963 0
-419 -964 0
-420 -965 0
-416 -981 0
-417 -982 0
-418 -983 0
-419 -984 0
-420 -985 0
-416 -1341 0
-417 -1342 0
-418 -1343 0
-419 -1344 0
-420 -1345 0
-416 -1351 0
-417 -1352 0
-418 -1353 0
-419 -1354 0
-420 -1355 0
-416 -1401 0
-417 -1402 0
-418 -1403 0
-419 -1404 0
-420 -1405 0
-416 -1506 0
-417 -1507 0
-418 -1508 0
-419 -1509 0
-420 -1510 0
-416 -3046 0
-417 -3047 0
-418 -3048 0
-419 -3049 0
-420 -3050 0
-421 -526 0
-422 -527 0
-423 -528 0
-424 -529 0
-425 -530 0
-421 -621 0
-422 -622 0
-423 -623 0
-424 -624 0
-425 -625 0
-421 -966 0
-422 -967 0
-423 -968 0
-424 -969 0
-425 -970 0
-421 -986 0
-422 -987 0
-423 -988 0
-424 -989 0
-425 -990 0
-421 -1346 0
-422 -1347 0
-423 -1348 0
-424 -1349 0
-425 -1350 0
-421 -1356 0
-422 -1357 0
-423 -1358 0
-424 -1359 0
-425 -1360 0
-421 -1416 0
-422 -1417 0
-423 -1418 0
-424 -1419 0
-425 -1420 0
-421 -1511 0
-422 -1512 0
-423 -1513 0
-424 -1514 0
-425 -1515 0
-426 -501 0
-427 -502 0
-428 -503 0
-429 -504 0
-430 -505 0
-426 -971 0
-427 -972 0
-428 -973 0
-429 -974 0
-430 -975 0
-426 -991 0
-427 -992 0
-428 -993 0
-429 -994 0
-430 -995 0
-426 -1366 0
-427 -1367 0
-428 -1368 0
-429 -1369 0
-430 -1370 0
-426 -1411 0
-427 -1412 0
-428 -1413 0
-429 -1414 0
-430 -1415 0
-426 -1541 0
-427 -1542 0
-428 -1543 0
-429 -1544 0
-430 -1545 0
-426 -3056 0
-427 -3057 0
-428 -3058 0
-429 -3059 0
-430 -3060 0
-431 -536 0
-432 -537 0
-433 -538 0
-434 -539 0
-435 -540 0
-431 -606 0
-432 -607 0
-433 -608 0
-434 -609 0
-435 -610 0
-431 -731 0
-432 -732 0
-433 -733 0
-434 -734 0
-435 -735 0
-431 -936 0
-432 -937 0
-433 -938 0
-434 -939 0
-435 -940 0
-431 -976 0
-432 -977 0
-433 -978 0
-434 -979 0
-435 -980 0
-431 -1351 0
-432 -1352 0
-433 -1353 0
-434 -1354 0
-435 -1355 0
-431 -1426 0
-432 -1427 0
-433 -1428 0
-434 -1429 0
-435 -1430 0
-431 -1546 0
-432 -1547 0
-433 -1548 0
-434 -1549 0
-435 -1550 0
-436 -511 0
-437 -512 0
-438 -513 0
-439 -514 0
-440 -515 0
-436 -616 0
-437 -617 0
-438 -618 0
-439 -619 0
-440 -620 0
-436 -941 0
-437 -942 0
-438 -943 0
-439 -944 0
-440 -945 0
-436 -981 0
-437 -982 0
-438 -983 0
-439 -984 0
-440 -985 0
-436 -1311 0
-437 -1312 0
-438 -1313 0
-439 -1314 0
-440 -1315 0
-436 -1361 0
-437 -1362 0
-438 -1363 0
-439 -1364 0
-440 -1365 0
-436 -1421 0
-437 -1422 0
-438 -1423 0
-439 -1424 0
-440 -1425 0
-436 -1516 0
-437 -1517 0
-438 -1518 0
-439 -1519 0
-440 -1520 0
-436 -3066 0
-437 -3067 0
-438 -3068 0
-439 -3069 0
-440 -3070 0
-441 -566 0
-442 -567 0
-443 -568 0
-444 -569 0
-445 -570 0
-441 -771 0
-442 -772 0
-443 -773 0
-444 -774 0
-445 -775 0
-441 -846 0
-442 -847 0
-443 -848 0
-444 -849 0
-445 -850 0
-441 -1206 0
-442 -1207 0
-443 -1208 0
-444 -1209 0
-445 -1210 0
-441 -1431 0
-442 -1432 0
-443 -1433 0
-444 -1434 0
-445 -1435 0
-441 -1561 0
-442 -1562 0
-443 -1563 0
-444 -1564 0
-445 -1565 0
-441 -3681 0
-442 -3682 0
-443 -3683 0
-444 -3684 0
-445 -3685 0
-446 -781 0
-447 -782 0
-448 -783 0
-449 -784 0
-450 -785 0
-446 -851 0
-447 -852 0
-448 -853 0
-449 -854 0
-450 -855 0
-446 -1126 0
-447 -1127 0
-448 -1128 0
-449 -1129 0
-450 -1130 0
-446 -1441 0
-447 -1442 0
-448 -1443 0
-449 -1444 0
-450 -1445 0
-446 -1491 0
-447 -1492 0
-448 -1493 0
-449 -1494 0
-450 -1495 0
-446 -1526 0
-447 -1527 0
-448 -1528 0
-449 -1529 0
-450 -1530 0
-446 -1566 0
-447 -1567 0
-448 -1568 0
-449 -1569 0
-450 -1570 0
-451 -786 0
-452 -787 0
-453 -788 0
-454 -789 0
-455 -790 0
-451 -856 0
-452 -857 0
-453 -858 0
-454 -859 0
-455 -860 0
-451 -1151 0
-452 -1152 0
-453 -1153 0
-454 -1154 0
-455 -1155 0
-451 -1436 0
-452 -1437 0
-453 -1438 0
-454 -1439 0
-455 -1440 0
-451 -1496 0
-452 -1497 0
-453 -1498 0
-454 -1499 0
-455 -1500 0
-451 -1521 0
-452 -1522 0
-453 -1523 0
-454 -1524 0
-455 -1525 0
-451 -1566 0
-452 -1567 0
-453 -1568 0
-454 -1569 0
-455 -1570 0
-456 -561 0
-457 -562 0
-458 -563 0
-459 -564 0
-460 -565 0
-456 -746 0
-457 -747 0
-458 -748 0
-459 -749 0
-460 -750 0
-456 -791 0
-457 -792 0
-458 -793 0
-459 -794 0
-460 -795 0
-456 -1161 0
-457 -1162 0
-458 -1163 0
-459 -1164 0
-460 -1165 0
-456 -1446 0
-457 -1447 0
-458 -1448 0
-459 -1449 0
-460 -1450 0
-456 -1571 0
-457 -1572 0
-458 -1573 0
-459 -1574 0
-460 -1575 0
-456 -3691 0
-457 -3692 0
-458 -3693 0
-459 -3694 0
-460 -3695 0
-461 -571 0
-462 -572 0
-463 -573 0
-464 -574 0
-465 -575 0
-461 -766 0
-462 -767 0
-463 -768 0
-464 -769 0
-465 -770 0
-461 -811 0
-462 -812 0
-463 -813 0
-464 -814 0
-465 -815 0
-461 -1146 0
-462 -1147 0
-463 -1148 0
-464 -1149 0
-465 -1150 0
-461 -1451 0
-462 -1452 0
-463 -1453 0
-464 -1454 0
-465 -1455 0
-461 -1591 0
-462 -1592 0
-463 -1593 0
-464 -1594 0
-465 -1595 0
-461 -3711 0
-462 -3712 0
-463 -3713 0
-464 -3714 0
-465 -3715 0
-466 -771 0
-467 -772 0
-468 -773 0
-469 -774 0
-470 -775 0
-466 -821 0
-467 -822 0
-468 -823 0
-469 -824 0
-470 -825 0
-466 -1156 0
-467 -1157 0
-468 -1158 0
-469 -1159 0
-470 -1160 0
-466 -1461 0
-467 -1462 0
-468 -1463 0
-469 -1464 0
-470 -1465 0
-466 -1501 0
-467 -1502 0
-468 -1503 0
-469 -1504 0
-470 -1505 0
-466 -1536 0
-467 -1537 0
-468 -1538 0
-469 -1539 0
-470 -1540 0
-466 -1596 0
-467 -1597 0
-468 -1598 0
-469 -1599 0
-470 -1600 0
-471 -776 0
-472 -777 0
-473 -778 0
-474 -779 0
-475 -780 0
-471 -826 0
-472 -827 0
-473 -828 0
-474 -829 0
-475 -830 0
-471 -1181 0
-472 -1182 0
-473 -1183 0
-474 -1184 0
-475 -1185 0
-471 -1456 0
-472 -1457 0
-473 -1458 0
-474 -1459 0
-475 -1460 0
-471 -1506 0
-472 -1507 0
-473 -1508 0
-474 -1509 0
-475 -1510 0
-471 -1531 0
-472 -1532 0
-473 -1533 0
-474 -1534 0
-475 -1535 0
-471 -1596 0
-472 -1597 0
-473 -1598 0
-474 -1599 0
-475 -1600 0
-476 -566 0
-477 -567 0
-478 -568 0
-479 -569 0
-480 -570 0
-476 -786 0
-477 -787 0
-478 -788 0
-479 -789 0
-480 -790 0
-476 -831 0
-477 -832 0
-478 -833 0
-479 -834 0
-480 -835 0
-476 -1191 0
-477 -1192 0
-478 -1193 0
-479 -1194 0
-480 -1195 0
-476 -1466 0
-477 -1467 0
-478 -1468 0
-479 -1469 0
-480 -1470 0
-476 -1601 0
-477 -1602 0
-478 -1603 0
-479 -1604 0
-480 -1605 0
-476 -3721 0
-477 -3722 0
-478 -3723 0
-479 -3724 0
-480 -3725 0
-481 -561 0
-482 -562 0
-483 -563 0
-484 -564 0
-485 -565 0
-481 -806 0
-482 -807 0
-483 -808 0
-484 -809 0
-485 -810 0
-481 -851 0
-482 -852 0
-483 -853 0
-484 -854 0
-485 -855 0
-481 -1176 0
-482 -1177 0
-483 -1178 0
-484 -1179 0
-485 -1180 0
-481 -1471 0
-482 -1472 0
-483 -1473 0
-484 -1474 0
-485 -1475 0
-481 -1621 0
-482 -1622 0
-483 -1623 0
-484 -1624 0
-485 -1625 0
-481 -3741 0
-482 -3742 0
-483 -3743 0
-484 -3744 0
-485 -3745 0
-486 -741 0
-487 -742 0
-488 -743 0
-489 -744 0
-490 -745 0
-486 -811 0
-487 -812 0
-488 -813 0
-489 -814 0
-490 -815 0
-486 -1186 0
-487 -1187 0
-488 -1188 0
-489 -1189 0
-490 -1190 0
-486 -1481 0
-487 -1482 0
-488 -1483 0
-489 -1484 0
-490 -1485 0
-486 -1511 0
-487 -1512 0
-488 -1513 0
-489 -1514 0
-490 -1515 0
-486 -1546 0
-487 -1547 0
-488 -1548 0
-489 -1549 0
-490 -1550 0
-486 -1626 0
-487 -1627 0
-488 -1628 0
-489 -1629 0
-490 -1630 0
-491 -746 0
-492 -747 0
-493 -748 0
-494 -749 0
-495 -750 0
-491 -816 0
-492 -817 0
-493 -818 0
-494 -819 0
-495 -820 0
-491 -1211 0
-492 -1212 0
-493 -1213 0
-494 -1214 0
-495 -1215 0
-491 -1476 0
-492 -1477 0
-493 -1478 0
-494 -1479 0
-495 -1480 0
-491 -1516 0
-492 -1517 0
-493 -1518 0
-494 -1519 0
-495 -1520 0
-491 -1541 0
-492 -1542 0
-493 -1543 0
-494 -1544 0
-495 -1545 0
-491 -1626 0
-492 -1627 0
-493 -1628 0
-494 -1629 0
-495 -1630 0
-496 -571 0
-497 -572 0
-498 -573 0
-499 -574 0
-500 -575 0
-496 -751 0
-497 -752 0
-498 -753 0
-499 -754 0
-500 -755 0
-496 -826 0
-497 -827 0
-498 -828 0
-499 -829 0
-500 -830 0
-496 -1131 0
-497 -1132 0
-498 -1133 0
-499 -1134 0
-500 -1135 0
-496 -1486 0
-497 -1487 0
-498 -1488 0
-499 -1489 0
-500 -1490 0
-496 -1631 0
-497 -1632 0
-498 -1633 0
-499 -1634 0
-500 -1635 0
-496 -3751 0
-497 -3752 0
-498 -3753 0
-499 -3754 0
-500 -3755 0
-501 -516 0
-502 -517 0
-503 -518 0
-504 -519 0
-505 -520 0
-501 -871 0
-502 -872 0
-503 -873 0
-504 -874 0
-505 -875 0
-501 -1016 0
-502 -1017 0
-503 -1018 0
-504 -1019 0
-505 -1020 0
-501 -2676 0
-502 -2677 0
-503 -2678 0
-504 -2679 0
-505 -2680 0
-501 -2951 0
-502 -2952 0
-503 -2953 0
-504 -2954 0
-505 -2955 0
-501 -3041 0
-502 -3042 0
-503 -3043 0
-504 -3044 0
-505 -3045 0
-501 -3406 0
-502 -3407 0
-503 -3408 0
-504 -3409 0
-505 -3410 0
-501 -3546 0
-502 -3547 0
-503 -3548 0
-504 -3549 0
-505 -3550 0
-506 -551 0
-507 -552 0
-508 -553 0
-509 -554 0
-510 -555 0
-506 -631 0
-507 -632 0
-508 -633 0
-509 -634 0
-510 -635 0
-506 -916 0
-507 -917 0
-508 -918 0
-509 -919 0
-510 -920 0
-506 -1081 0
-507 -1082 0
-508 -1083 0
-509 -1084 0
-510 -1085 0
-506 -1521 0
-507 -1522 0
-508 -1523 0
-509 -1524 0
-510 -1525 0
-506 -3046 0
-507 -3047 0
-508 -3048 0
-509 -3049 0
-510 -3050 0
-511 -526 0
-512 -527 0
-513 -528 0
-514 -529 0
-515 -530 0
-511 -626 0
-512 -627 0
-513 -628 0
-514 -629 0
-515 -630 0
-511 -881 0
-512 -882 0
-513 -883 0
-514 -884 0
-515 -885 0
-511 -1031 0
-512 -1032 0
-513 -1033 0
-514 -1034 0
-515 -1035 0
-511 -1526 0
-512 -1527 0
-513 -1528 0
-514 -1529 0
-515 -1530 0
-511 -2606 0
-512 -2607 0
-513 -2608 0
-514 -2609 0
-515 -2610 0
-511 -2651 0
-512 -2652 0
-513 -2653 0
-514 -2654 0
-515 -2655 0
-511 -2911 0
-512 -2912 0
-513 -2913 0
-514 -2914 0
-515 -2915 0
-511 -2961 0
-512 -2962 0
-513 -2963 0
-514 -2964 0
-515 -2965 0
-511 -3051 0
-512 -3052 0
-513 -3053 0
-514 -3054 0
-515 -3055 0
-511 -3176 0
-512 -3177 0
-513 -3178 0
-514 -3179 0
-515 -3180 0
-511 -3416 0
-512 -3417 0
-513 -3418 0
-514 -3419 0
-515 -3420 0
-511 -3561 0
-512 -3562 0
-513 -3563 0
-514 -3564 0
-515 -3565 0
-511 -4071 0
-512 -4072 0
-513 -4073 0
-514 -4074 0
-515 -4075 0
-516 -866 0
-517 -867 0
-518 -868 0
-519 -869 0
-520 -870 0
-516 -1006 0
-517 -1007 0
-518 -1008 0
-519 -1009 0
-520 -1010 0
-516 -3056 0
-517 -3057 0
-518 -3058 0
-519 -3059 0
-520 -3060 0
-521 -536 0
-522 -537 0
-523 -538 0
-524 -539 0
-525 -540 0
-521 -891 0
-522 -892 0
-523 -893 0
-524 -894 0
-525 -895 0
-521 -1046 0
-522 -1047 0
-523 -1048 0
-524 -1049 0
-525 -1050 0
-521 -2656 0
-522 -2657 0
-523 -2658 0
-524 -2659 0
-525 -2660 0
-521 -2971 0
-522 -2972 0
-523 -2973 0
-524 -2974 0
-525 -2975 0
-521 -3061 0
-522 -3062 0
-523 -3063 0
-524 -3064 0
-525 -3065 0
-521 -3426 0
-522 -3427 0
-523 -3428 0
-524 -3429 0
-525 -3430 0
-521 -3576 0
-522 -3577 0
-523 -3578 0
-524 -3579 0
-525 -3580 0
-526 -636 0
-527 -637 0
-528 -638 0
-529 -639 0
-530 -640 0
-526 -876 0
-527 -877 0
-528 -878 0
-529 -879 0
-530 -880 0
-526 -1021 0
-527 -1022 0
-528 -1023 0
-529 -1024 0
-530 -1025 0
-526 -1531 0
-527 -1532 0
-528 -1533 0
-529 -1534 0
-530 -1535 0
-526 -3066 0
-527 -3067 0
-528 -3068 0
-529 -3069 0
-530 -3070 0
-531 -546 0
-532 -547 0
-533 -548 0
-534 -549 0
-535 -550 0
-531 -631 0
-532 -632 0
-533 -633 0
-534 -634 0
-535 -635 0
-531 -901 0
-532 -902 0
-533 -903 0
-534 -904 0
-535 -905 0
-531 -1061 0
-532 -1062 0
-533 -1063 0
-534 -1064 0
-535 -1065 0
-531 -1536 0
-532 -1537 0
-533 -1538 0
-534 -1539 0
-535 -1540 0
-531 -2611 0
-532 -2612 0
-533 -2613 0
-534 -2614 0
-535 -2615 0
-531 -2661 0
-532 -2662 0
-533 -2663 0
-534 -2664 0
-535 -2665 0
-531 -2891 0
-532 -2892 0
-533 -2893 0
-534 -2894 0
-535 -2895 0
-531 -2921 0
-532 -2922 0
-533 -2923 0
-534 -2924 0
-535 -2925 0
-531 -3071 0
-532 -3072 0
-533 -3073 0
-534 -3074 0
-535 -3075 0
-531 -3166 0
-532 -3167 0
-533 -3168 0
-534 -3169 0
-535 -3170 0
-531 -3436 0
-532 -3437 0
-533 -3438 0
-534 -3439 0
-535 -3440 0
-531 -3591 0
-532 -3592 0
-533 -3593 0
-534 -3594 0
-535 -3595 0
-531 -4081 0
-532 -4082 0
-533 -4083 0
-534 -4084 0
-535 -4085 0
-536 -886 0
-537 -887 0
-538 -888 0
-539 -889 0
-540 -890 0
-536 -1036 0
-537 -1037 0
-538 -1038 0
-539 -1039 0
-540 -1040 0
-536 -3076 0
-537 -3077 0
-538 -3078 0
-539 -3079 0
-540 -3080 0
-541 -556 0
-542 -557 0
-543 -558 0
-544 -559 0
-545 -560 0
-541 -911 0
-542 -912 0
-543 -913 0
-544 -914 0
-545 -915 0
-541 -1076 0
-542 -1077 0
-543 -1078 0
-544 -1079 0
-545 -1080 0
-541 -2666 0
-542 -2667 0
-543 -2668 0
-544 -2669 0
-545 -2670 0
-541 -2931 0
-542 -2932 0
-543 -2933 0
-544 -2934 0
-545 -2935 0
-541 -3081 0
-542 -3082 0
-543 -3083 0
-544 -3084 0
-545 -3085 0
-541 -3446 0
-542 -3447 0
-543 -3448 0
-544 -3449 0
-545 -3450 0
-541 -3606 0
-542 -3607 0
-543 -3608 0
-544 -3609 0
-545 -3610 0
-546 -626 0
-547 -627 0
-548 -628 0
-549 -629 0
-550 -630 0
-546 -896 0
-547 -897 0
-548 -898 0
-549 -899 0
-550 -900 0
-546 -1051 0
-547 -1052 0
-548 -1053 0
-549 -1054 0
-550 -1055 0
-546 -1541 0
-547 -1542 0
-548 -1543 0
-549 -1544 0
-550 -1545 0
-546 -3086 0
-547 -3087 0
-548 -3088 0
-549 -3089 0
-550 -3090 0
-551 -636 0
-552 -637 0
-553 -638 0
-554 -639 0
-555 -640 0
-551 -861 0
-552 -862 0
-553 -863 0
-554 -864 0
-555 -865 0
-551 -1001 0
-552 -1002 0
-553 -1003 0
-554 -1004 0
-555 -1005 0
-551 -1546 0
-552 -1547 0
-553 -1548 0
-554 -1549 0
-555 -1550 0
-551 -2616 0
-552 -2617 0
-553 -2618 0
-554 -2619 0
-555 -2620 0
-551 -2671 0
-552 -2672 0
-553 -2673 0
-554 -2674 0
-555 -2675 0
-551 -2901 0
-552 -2902 0
-553 -2903 0
-554 -2904 0
-555 -2905 0
-551 -2941 0
-552 -2942 0
-553 -2943 0
-554 -2944 0
-555 -2945 0
-551 -3091 0
-552 -3092 0
-553 -3093 0
-554 -3094 0
-555 -3095 0
-551 -3171 0
-552 -3172 0
-553 -3173 0
-554 -3174 0
-555 -3175 0
-551 -3456 0
-552 -3457 0
-553 -3458 0
-554 -3459 0
-555 -3460 0
-551 -3621 0
-552 -3622 0
-553 -3623 0
-554 -3624 0
-555 -3625 0
-551 -4061 0
-552 -4062 0
-553 -4063 0
-554 -4064 0
-555 -4065 0
-556 -906 0
-557 -907 0
-558 -908 0
-559 -909 0
-560 -910 0
-556 -1066 0
-557 -1067 0
-558 -1068 0
-559 -1069 0
-560 -1070 0
-556 -3096 0
-557 -3097 0
-558 -3098 0
-559 -3099 0
-560 -3100 0
-561 -1556 0
-562 -1557 0
-563 -1558 0
-564 -1559 0
-565 -1560 0
-561 -1636 0
-562 -1637 0
-563 -1638 0
-564 -1639 0
-565 -1640 0
-566 -1576 0
-567 -1577 0
-568 -1578 0
-569 -1579 0
-570 -1580 0
-566 -1586 0
-567 -1587 0
-568 -1588 0
-569 -1589 0
-570 -1590 0
-571 -1606 0
-572 -1607 0
-573 -1608 0
-574 -1609 0
-575 -1610 0
-571 -1616 0
-572 -1617 0
-573 -1618 0
-574 -1619 0
-575 -1620 0
-576 -721 0
-577 -722 0
-578 -723 0
-579 -724 0
-580 -725 0
-576 -1321 0
-577 -1322 0
-578 -1323 0
-579 -1324 0
-580 -1325 0
-576 -1521 0
-577 -1522 0
-578 -1523 0
-579 -1524 0
-580 -1525 0
-576 -1641 0
-577 -1642 0
-578 -1643 0
-579 -1644 0
-580 -1645 0
-576 -1671 0
-577 -1672 0
-578 -1673 0
-579 -1674 0
-580 -1675 0
-581 -696 0
-582 -697 0
-583 -698 0
-584 -699 0
-585 -700 0
-581 -731 0
-582 -732 0
-583 -733 0
-584 -734 0
-585 -735 0
-581 -1111 0
-582 -1112 0
-583 -1113 0
-584 -1114 0
-585 -1115 0
-581 -1316 0
-582 -1317 0
-583 -1318 0
-584 -1319 0
-585 -1320 0
-581 -1526 0
-582 -1527 0
-583 -1528 0
-584 -1529 0
-585 -1530 0
-581 -1646 0
-582 -1647 0
-583 -1648 0
-584 -1649 0
-585 -1650 0
-581 -1676 0
-582 -1677 0
-583 -1678 0
-584 -1679 0
-585 -1680 0
-586 -676 0
-587 -677 0
-588 -678 0
-589 -679 0
-590 -680 0
-586 -1091 0
-587 -1092 0
-588 -1093 0
-589 -1094 0
-590 -1095 0
-586 -1286 0
-587 -1287 0
-588 -1288 0
-589 -1289 0
-590 -1290 0
-586 -1331 0
-587 -1332 0
-588 -1333 0
-589 -1334 0
-590 -1335 0
-586 -1646 0
-587 -1647 0
-588 -1648 0
-589 -1649 0
-590 -1650 0
-591 -701 0
-592 -702 0
-593 -703 0
-594 -704 0
-595 -705 0
-591 -1291 0
-592 -1292 0
-593 -1293 0
-594 -1294 0
-595 -1295 0
-591 -1326 0
-592 -1327 0
-593 -1328 0
-594 -1329 0
-595 -1330 0
-591 -1651 0
-592 -1652 0
-593 -1653 0
-594 -1654 0
-595 -1655 0
-596 -681 0
-597 -682 0
-598 -683 0
-599 -684 0
-600 -685 0
-596 -1106 0
-597 -1107 0
-598 -1108 0
-599 -1109 0
-600 -1110 0
-596 -1341 0
-597 -1342 0
-598 -1343 0
-599 -1344 0
-600 -1345 0
-596 -1531 0
-597 -1532 0
-598 -1533 0
-599 -1534 0
-600 -1535 0
-596 -1651 0
-597 -1652 0
-598 -1653 0
-599 -1654 0
-600 -1655 0
-596 -1681 0
-597 -1682 0
-598 -1683 0
-599 -1684 0
-600 -1685 0
-601 -716 0
-602 -717 0
-603 -718 0
-604 -719 0
-605 -720 0
-601 -1121 0
-602 -1122 0
-603 -1123 0
-604 -1124 0
-605 -1125 0
-601 -1336 0
-602 -1337 0
-603 -1338 0
-604 -1339 0
-605 -1340 0
-601 -1536 0
-602 -1537 0
-603 -1538 0
-604 -1539 0
-605 -1540 0
-601 -1656 0
-602 -1657 0
-603 -1658 0
-604 -1659 0
-605 -1660 0
-601 -1686 0
-602 -1687 0
-603 -1688 0
-604 -1689 0
-605 -1690 0
-606 -696 0
-607 -697 0
-608 -698 0
-609 -699 0
-610 -700 0
-606 -1296 0
-607 -1297 0
-608 -1298 0
-609 -1299 0
-610 -1300 0
-606 -1351 0
-607 -1352 0
-608 -1353 0
-609 -1354 0
-610 -1355 0
-606 -1656 0
-607 -1657 0
-608 -1658 0
-609 -1659 0
-610 -1660 0
-606 -3271 0
-607 -3272 0
-608 -3273 0
-609 -3274 0
-610 -3275 0
-611 -721 0
-612 -722 0
-613 -723 0
-614 -724 0
-615 -725 0
-611 -1096 0
-612 -1097 0
-613 -1098 0
-614 -1099 0
-615 -1100 0
-611 -1301 0
-612 -1302 0
-613 -1303 0
-614 -1304 0
-615 -1305 0
-611 -1346 0
-612 -1347 0
-613 -1348 0
-614 -1349 0
-615 -1350 0
-611 -1661 0
-612 -1662 0
-613 -1663 0
-614 -1664 0
-615 -1665 0
-616 -701 0
-617 -702 0
-618 -703 0
-619 -704 0
-620 -705 0
-616 -736 0
-617 -737 0
-618 -738 0
-619 -739 0
-620 -740 0
-616 -1116 0
-617 -1117 0
-618 -1118 0
-619 -1119 0
-620 -1120 0
-616 -1361 0
-617 -1362 0
-618 -1363 0
-619 -1364 0
-620 -1365 0
-616 -1541 0
-617 -1542 0
-618 -1543 0
-619 -1544 0
-620 -1545 0
-616 -1661 0
-617 -1662 0
-618 -1663 0
-619 -1664 0
-620 -1665 0
-616 -1691 0
-617 -1692 0
-618 -1693 0
-619 -1694 0
-620 -1695 0
-621 -676 0
-622 -677 0
-623 -678 0
-624 -679 0
-625 -680 0
-621 -1356 0
-622 -1357 0
-623 -1358 0
-624 -1359 0
-625 -1360 0
-621 -1546 0
-622 -1547 0
-623 -1548 0
-624 -1549 0
-625 -1550 0
-621 -1666 0
-622 -1667 0
-623 -1668 0
-624 -1669 0
-625 -1670 0
-621 -1696 0
-622 -1697 0
-623 -1698 0
-624 -1699 0
-625 -1700 0
-626 -921 0
-627 -922 0
-628 -923 0
-629 -924 0
-630 -925 0
-626 -931 0
-627 -932 0
-628 -933 0
-629 -934 0
-630 -935 0
-626 -1436 0
-627 -1437 0
-628 -1438 0
-629 -1439 0
-630 -1440 0
-626 -1481 0
-627 -1482 0
-628 -1483 0
-629 -1484 0
-630 -1485 0
-626 -1491 0
-627 -1492 0
-628 -1493 0
-629 -1494 0
-630 -1495 0
-626 -1516 0
-627 -1517 0
-628 -1518 0
-629 -1519 0
-630 -1520 0
-626 -3066 0
-627 -3067 0
-628 -3068 0
-629 -3069 0
-630 -3070 0
-631 -921 0
-632 -922 0
-633 -923 0
-634 -924 0
-635 -925 0
-631 -926 0
-632 -927 0
-633 -928 0
-634 -929 0
-635 -930 0
-631 -1441 0
-632 -1442 0
-633 -1443 0
-634 -1444 0
-635 -1445 0
-631 -1456 0
-632 -1457 0
-633 -1458 0
-634 -1459 0
-635 -1460 0
-631 -1496 0
-632 -1497 0
-633 -1498 0
-634 -1499 0
-635 -1500 0
-631 -1501 0
-632 -1502 0
-633 -1503 0
-634 -1504 0
-635 -1505 0
-631 -3086 0
-632 -3087 0
-633 -3088 0
-634 -3089 0
-635 -3090 0
-636 -926 0
-637 -927 0
-638 -928 0
-639 -929 0
-640 -930 0
-636 -931 0
-637 -932 0
-638 -933 0
-639 -934 0
-640 -935 0
-636 -1461 0
-637 -1462 0
-638 -1463 0
-639 -1464 0
-640 -1465 0
-636 -1476 0
-637 -1477 0
-638 -1478 0
-639 -1479 0
-640 -1480 0
-636 -1506 0
-637 -1507 0
-638 -1508 0
-639 -1509 0
-640 -1510 0
-636 -1511 0
-637 -1512 0
-638 -1513 0
-639 -1514 0
-640 -1515 0
-636 -3046 0
-637 -3047 0
-638 -3048 0
-639 -3049 0
-640 -3050 0
-641 -776 0
-642 -777 0
-643 -778 0
-644 -779 0
-645 -780 0
-641 -851 0
-642 -852 0
-643 -853 0
-644 -854 0
-645 -855 0
-641 -1236 0
-642 -1237 0
-643 -1238 0
-644 -1239 0
-645 -1240 0
-641 -1671 0
-642 -1672 0
-643 -1673 0
-644 -1674 0
-645 -1675 0
-646 -741 0
-647 -742 0
-648 -743 0
-649 -744 0
-650 -745 0
-646 -786 0
-647 -787 0
-648 -788 0
-649 -789 0
-650 -790 0
-646 -1231 0
-647 -1232 0
-648 -1233 0
-649 -1234 0
-650 -1235 0
-646 -1241 0
-647 -1242 0
-648 -1243 0
-649 -1244 0
-650 -1245 0
-646 -1676 0
-647 -1677 0
-648 -1678 0
-649 -1679 0
-650 -1680 0
-651 -771 0
-652 -772 0
-653 -773 0
-654 -774 0
-655 -775 0
-651 -816 0
-652 -817 0
-653 -818 0
-654 -819 0
-655 -820 0
-651 -1246 0
-652 -1247 0
-653 -1248 0
-654 -1249 0
-655 -1250 0
-651 -1256 0
-652 -1257 0
-653 -1258 0
-654 -1259 0
-655 -1260 0
-651 -1681 0
-652 -1682 0
-653 -1683 0
-654 -1684 0
-655 -1685 0
-656 -781 0
-657 -782 0
-658 -783 0
-659 -784 0
-660 -785 0
-656 -826 0
-657 -827 0
-658 -828 0
-659 -829 0
-660 -830 0
-656 -1251 0
-657 -1252 0
-658 -1253 0
-659 -1254 0
-660 -1255 0
-656 -1261 0
-657 -1262 0
-658 -1263 0
-659 -1264 0
-660 -1265 0
-656 -1686 0
-657 -1687 0
-658 -1688 0
-659 -1689 0
-660 -1690 0
-661 -811 0
-662 -812 0
-663 -813 0
-664 -814 0
-665 -815 0
-661 -856 0
-662 -857 0
-663 -858 0
-664 -859 0
-665 -860 0
-661 -1266 0
-662 -1267 0
-663 -1268 0
-664 -1269 0
-665 -1270 0
-661 -1276 0
-662 -1277 0
-663 -1278 0
-664 -1279 0
-665 -1280 0
-661 -1691 0
-662 -1692 0
-663 -1693 0
-664 -1694 0
-665 -1695 0
-666 -746 0
-667 -747 0
-668 -748 0
-669 -749 0
-670 -750 0
-666 -821 0
-667 -822 0
-668 -823 0
-669 -824 0
-670 -825 0
-666 -1271 0
-667 -1272 0
-668 -1273 0
-669 -1274 0
-670 -1275 0
-666 -1696 0
-667 -1697 0
-668 -1698 0
-669 -1699 0
-670 -1700 0
-671 -871 0
-672 -872 0
-673 -873 0
-674 -874 0
-675 -875 0
-671 -911 0
-672 -912 0
-673 -913 0
-674 -914 0
-675 -915 0
-671 -1141 0
-672 -1142 0
-673 -1143 0
-674 -1144 0
-675 -1145 0
-671 -1276 0
-672 -1277 0
-673 -1278 0
-674 -1279 0
-675 -1280 0
-671 -1671 0
-672 -1672 0
-673 -1673 0
-674 -1674 0
-675 -1675 0
-671 -1701 0
-672 -1702 0
-673 -1703 0
-674 -1704 0
-675 -1705 0
-676 -876 0
-677 -877 0
-678 -878 0
-679 -879 0
-680 -880 0
-676 -916 0
-677 -917 0
-678 -918 0
-679 -919 0
-680 -920 0
-676 -1206 0
-677 -1207 0
-678 -1208 0
-679 -1209 0
-680 -1210 0
-676 -1526 0
-677 -1527 0
-678 -1528 0
-679 -1529 0
-680 -1530 0
-676 -3681 0
-677 -3682 0
-678 -3683 0
-679 -3684 0
-680 -3685 0
-681 -861 0
-682 -862 0
-683 -863 0
-684 -864 0
-685 -865 0
-681 -881 0
-682 -882 0
-683 -883 0
-684 -884 0
-685 -885 0
-681 -1161 0
-682 -1162 0
-683 -1163 0
-684 -1164 0
-685 -1165 0
-681 -1246 0
-682 -1247 0
-683 -1248 0
-684 -1249 0
-685 -1250 0
-681 -1521 0
-682 -1522 0
-683 -1523 0
-684 -1524 0
-685 -1525 0
-681 -3691 0
-682 -3692 0
-683 -3693 0
-684 -3694 0
-685 -3695 0
-686 -866 0
-687 -867 0
-688 -868 0
-689 -869 0
-690 -870 0
-686 -886 0
-687 -887 0
-688 -888 0
-689 -889 0
-690 -890 0
-686 -1136 0
-687 -1137 0
-688 -1138 0
-689 -1139 0
-690 -1140 0
-686 -1251 0
-687 -1252 0
-688 -1253 0
-689 -1254 0
-690 -1255 0
-686 -1676 0
-687 -1677 0
-688 -1678 0
-689 -1679 0
-690 -1680 0
-686 -1706 0
-687 -1707 0
-688 -1708 0
-689 -1709 0
-690 -1710 0
-686 -3701 0
-687 -3702 0
-688 -3703 0
-689 -3704 0
-690 -3705 0
-691 -871 0
-692 -872 0
-693 -873 0
-694 -874 0
-695 -875 0
-691 -891 0
-692 -892 0
-693 -893 0
-694 -894 0
-695 -895 0
-691 -1171 0
-692 -1172 0
-693 -1173 0
-694 -1174 0
-695 -1175 0
-691 -1236 0
-692 -1237 0
-693 -1238 0
-694 -1239 0
-695 -1240 0
-691 -1681 0
-692 -1682 0
-693 -1683 0
-694 -1684 0
-695 -1685 0
-696 -876 0
-697 -877 0
-698 -878 0
-699 -879 0
-700 -880 0
-696 -896 0
-697 -897 0
-698 -898 0
-699 -899 0
-700 -900 0
-696 -1146 0
-697 -1147 0
-698 -1148 0
-699 -1149 0
-700 -1150 0
-696 -1241 0
-697 -1242 0
-698 -1243 0
-699 -1244 0
-700 -1245 0
-696 -1536 0
-697 -1537 0
-698 -1538 0
-699 -1539 0
-700 -1540 0
-696 -3711 0
-697 -3712 0
-698 -3713 0
-699 -3714 0
-700 -3715 0
-701 -881 0
-702 -882 0
-703 -883 0
-704 -884 0
-705 -885 0
-701 -901 0
-702 -902 0
-703 -903 0
-704 -904 0
-705 -905 0
-701 -1191 0
-702 -1192 0
-703 -1193 0
-704 -1194 0
-705 -1195 0
-701 -1266 0
-702 -1267 0
-703 -1268 0
-704 -1269 0
-705 -1270 0
-701 -1531 0
-702 -1532 0
-703 -1533 0
-704 -1534 0
-705 -1535 0
-701 -3721 0
-702 -3722 0
-703 -3723 0
-704 -3724 0
-705 -3725 0
-706 -886 0
-707 -887 0
-708 -888 0
-709 -889 0
-710 -890 0
-706 -906 0
-707 -907 0
-708 -908 0
-709 -909 0
-710 -910 0
-706 -1166 0
-707 -1167 0
-708 -1168 0
-709 -1169 0
-710 -1170 0
-706 -1271 0
-707 -1272 0
-708 -1273 0
-709 -1274 0
-710 -1275 0
-706 -1686 0
-707 -1687 0
-708 -1688 0
-709 -1689 0
-710 -1690 0
-706 -3731 0
-707 -3732 0
-708 -3733 0
-709 -3734 0
-710 -3735 0
-711 -891 0
-712 -892 0
-713 -893 0
-714 -894 0
-715 -895 0
-711 -911 0
-712 -912 0
-713 -913 0
-714 -914 0
-715 -915 0
-711 -1201 0
-712 -1202 0
-713 -1203 0
-714 -1204 0
-715 -1205 0
-711 -1256 0
-712 -1257 0
-713 -1258 0
-714 -1259 0
-715 -1260 0
-711 -1691 0
-712 -1692 0
-713 -1693 0
-714 -1694 0
-715 -1695 0
-711 -1711 0
-712 -1712 0
-713 -1713 0
-714 -1714 0
-715 -1715 0
-716 -896 0
-717 -897 0
-718 -898 0
-719 -899 0
-720 -900 0
-716 -916 0
-717 -917 0
-718 -918 0
-719 -919 0
-720 -920 0
-716 -1176 0
-717 -1177 0
-718 -1178 0
-719 -1179 0
-720 -1180 0
-716 -1261 0
-717 -1262 0
-718 -1263 0
-719 -1264 0
-720 -1265 0
-716 -1546 0
-717 -1547 0
-718 -1548 0
-719 -1549 0
-720 -1550 0
-716 -3741 0
-717 -3742 0
-718 -3743 0
-719 -3744 0
-720 -3745 0
-721 -861 0
-722 -862 0
-723 -863 0
-724 -864 0
-725 -865 0
-721 -901 0
-722 -902 0
-723 -903 0
-724 -904 0
-725 -905 0
-721 -1131 0
-722 -1132 0
-723 -1133 0
-724 -1134 0
-725 -1135 0
-721 -1541 0
-722 -1542 0
-723 -1543 0
-724 -1544 0
-725 -1545 0
-721 -3751 0
-722 -3752 0
-723 -3753 0
-724 -3754 0
-725 -3755 0
-726 -866 0
-727 -867 0
-728 -868 0
-729 -869 0
-730 -870 0
-726 -906 0
-727 -907 0
-728 -908 0
-729 -909 0
-730 -910 0
-726 -1196 0
-727 -1197 0
-728 -1198 0
-729 -1199 0
-730 -1200 0
-726 -1231 0
-727 -1232 0
-728 -1233 0
-729 -1234 0
-730 -1235 0
-726 -1696 0
-727 -1697 0
-728 -1698 0
-729 -1699 0
-730 -1700 0
-726 -1716 0
-727 -1717 0
-728 -1718 0
-729 -1719 0
-730 -1720 0
-726 -3671 0
-727 -3672 0
-728 -3673 0
-729 -3674 0
-730 -3675 0
-731 -1286 0
-732 -1287 0
-733 -1288 0
-734 -1289 0
-735 -1290 0
-731 -1426 0
-732 -1427 0
-733 -1428 0
-734 -1429 0
-735 -1430 0
-736 -1301 0
-737 -1302 0
-738 -1303 0
-739 -1304 0
-740 -1305 0
-736 -1371 0
-737 -1372 0
-738 -1373 0
-739 -1374 0
-740 -1375 0
-736 -2596 0
-737 -2597 0
-738 -2598 0
-739 -2599 0
-740 -2600 0
-736 -2976 0
-737 -2977 0
-738 -2978 0
-739 -2979 0
-740 -2980 0
-736 -3131 0
-737 -3132 0
-738 -3133 0
-739 -3134 0
-740 -3135 0
-736 -4261 0
-737 -4262 0
-738 -4263 0
-739 -4264 0
-740 -4265 0
-741 -921 0
-742 -922 0
-743 -923 0
-744 -924 0
-745 -925 0
-741 -986 0
-742 -987 0
-743 -988 0
-744 -989 0
-745 -990 0
-741 -1316 0
-742 -1317 0
-743 -1318 0
-744 -1319 0
-745 -1320 0
-741 -1481 0
-742 -1482 0
-743 -1483 0
-744 -1484 0
-745 -1485 0
-741 -1666 0
-742 -1667 0
-743 -1668 0
-744 -1669 0
-745 -1670 0
-741 -1781 0
-742 -1782 0
-743 -1783 0
-744 -1784 0
-745 -1785 0
-746 -761 0
-747 -762 0
-748 -763 0
-749 -764 0
-750 -765 0
-746 -841 0
-747 -842 0
-748 -843 0
-749 -844 0
-750 -845 0
-746 -946 0
-747 -947 0
-748 -948 0
-749 -949 0
-750 -950 0
-746 -1216 0
-747 -1217 0
-748 -1218 0
-749 -1219 0
-750 -1220 0
-746 -1366 0
-747 -1367 0
-748 -1368 0
-749 -1369 0
-750 -1370 0
-746 -1561 0
-747 -1562 0
-748 -1563 0
-749 -1564 0
-750 -1565 0
-746 -1636 0
-747 -1637 0
-748 -1638 0
-749 -1639 0
-750 -1640 0
-746 -1716 0
-747 -1717 0
-748 -1718 0
-749 -1719 0
-750 -1720 0
-746 -1736 0
-747 -1737 0
-748 -1738 0
-749 -1739 0
-750 -1740 0
-746 -1741 0
-747 -1742 0
-748 -1743 0
-749 -1744 0
-750 -1745 0
-746 -1786 0
-747 -1787 0
-748 -1788 0
-749 -1789 0
-750 -1790 0
-751 -766 0
-752 -767 0
-753 -768 0
-754 -769 0
-755 -770 0
-751 -846 0
-752 -847 0
-753 -848 0
-754 -849 0
-755 -850 0
-751 -1321 0
-752 -1322 0
-753 -1323 0
-754 -1324 0
-755 -1325 0
-751 -1486 0
-752 -1487 0
-753 -1488 0
-754 -1489 0
-755 -1490 0
-751 -1551 0
-752 -1552 0
-753 -1553 0
-754 -1554 0
-755 -1555 0
-751 -1566 0
-752 -1567 0
-753 -1568 0
-754 -1569 0
-755 -1570 0
-751 -1701 0
-752 -1702 0
-753 -1703 0
-754 -1704 0
-755 -1705 0
-751 -1741 0
-752 -1742 0
-753 -1743 0
-754 -1744 0
-755 -1745 0
-756 -771 0
-757 -772 0
-758 -773 0
-759 -774 0
-760 -775 0
-756 -851 0
-757 -852 0
-758 -853 0
-759 -854 0
-760 -855 0
-756 -991 0
-757 -992 0
-758 -993 0
-759 -994 0
-760 -995 0
-756 -1106 0
-757 -1107 0
-758 -1108 0
-759 -1109 0
-760 -1110 0
-756 -1326 0
-757 -1327 0
-758 -1328 0
-759 -1329 0
-760 -1330 0
-756 -1431 0
-757 -1432 0
-758 -1433 0
-759 -1434 0
-760 -1435 0
-756 -1441 0
-757 -1442 0
-758 -1443 0
-759 -1444 0
-760 -1445 0
-756 -1556 0
-757 -1557 0
-758 -1558 0
-759 -1559 0
-760 -1560 0
-756 -1571 0
-757 -1572 0
-758 -1573 0
-759 -1574 0
-760 -1575 0
-756 -1641 0
-757 -1642 0
-758 -1643 0
-759 -1644 0
-760 -1645 0
-756 -1721 0
-757 -1722 0
-758 -1723 0
-759 -1724 0
-760 -1725 0
-756 -1791 0
-757 -1792 0
-758 -1793 0
-759 -1794 0
-760 -1795 0
-761 -786 0
-762 -787 0
-763 -788 0
-764 -789 0
-765 -790 0
-761 -956 0
-762 -957 0
-763 -958 0
-764 -959 0
-765 -960 0
-761 -1311 0
-762 -1312 0
-763 -1313 0
-764 -1314 0
-765 -1315 0
-761 -1436 0
-762 -1437 0
-763 -1438 0
-764 -1439 0
-765 -1440 0
-761 -1446 0
-762 -1447 0
-763 -1448 0
-764 -1449 0
-765 -1450 0
-761 -1561 0
-762 -1562 0
-763 -1563 0
-764 -1564 0
-765 -1565 0
-761 -1576 0
-762 -1577 0
-763 -1578 0
-764 -1579 0
-765 -1580 0
-761 -1646 0
-762 -1647 0
-763 -1648 0
-764 -1649 0
-765 -1650 0
-761 -1721 0
-762 -1722 0
-763 -1723 0
-764 -1724 0
-765 -1725 0
-761 -1796 0
-762 -1797 0
-763 -1798 0
-764 -1799 0
-765 -1800 0
-766 -791 0
-767 -792 0
-768 -793 0
-769 -794 0
-770 -795 0
-766 -1111 0
-767 -1112 0
-768 -1113 0
-769 -1114 0
-770 -1115 0
-766 -1316 0
-767 -1317 0
-768 -1318 0
-769 -1319 0
-770 -1320 0
-766 -1451 0
-767 -1452 0
-768 -1453 0
-769 -1454 0
-770 -1455 0
-766 -1566 0
-767 -1567 0
-768 -1568 0
-769 -1569 0
-770 -1570 0
-766 -1581 0
-767 -1582 0
-768 -1583 0
-769 -1584 0
-770 -1585 0
-766 -1706 0
-767 -1707 0
-768 -1708 0
-769 -1709 0
-770 -1710 0
-766 -1746 0
-767 -1747 0
-768 -1748 0
-769 -1749 0
-770 -1750 0
-771 -796 0
-772 -797 0
-773 -798 0
-774 -799 0
-775 -800 0
-771 -941 0
-772 -942 0
-773 -943 0
-774 -944 0
-775 -945 0
-771 -1216 0
-772 -1217 0
-773 -1218 0
-774 -1219 0
-775 -1220 0
-771 -1331 0
-772 -1332 0
-773 -1333 0
-774 -1334 0
-775 -1335 0
-771 -1571 0
-772 -1572 0
-773 -1573 0
-774 -1574 0
-775 -1575 0
-771 -1586 0
-772 -1587 0
-773 -1588 0
-774 -1589 0
-775 -1590 0
-771 -1746 0
-772 -1747 0
-773 -1748 0
-774 -1749 0
-775 -1750 0
-771 -1801 0
-772 -1802 0
-773 -1803 0
-774 -1804 0
-775 -1805 0
-776 -921 0
-777 -922 0
-778 -923 0
-779 -924 0
-780 -925 0
-776 -961 0
-777 -962 0
-778 -963 0
-779 -964 0
-780 -965 0
-776 -1321 0
-777 -1322 0
-778 -1323 0
-779 -1324 0
-780 -1325 0
-776 -1456 0
-777 -1457 0
-778 -1458 0
-779 -1459 0
-780 -1460 0
-776 -1651 0
-777 -1652 0
-778 -1653 0
-779 -1654 0
-780 -1655 0
-776 -1751 0
-777 -1752 0
-778 -1753 0
-779 -1754 0
-780 -1755 0
-781 -926 0
-782 -927 0
-783 -928 0
-784 -929 0
-785 -930 0
-781 -946 0
-782 -947 0
-783 -948 0
-784 -949 0
-785 -950 0
-781 -1336 0
-782 -1337 0
-783 -1338 0
-784 -1339 0
-785 -1340 0
-781 -1441 0
-782 -1442 0
-783 -1443 0
-784 -1444 0
-785 -1445 0
-781 -1646 0
-782 -1647 0
-783 -1648 0
-784 -1649 0
-785 -1650 0
-786 -801 0
-787 -802 0
-788 -803 0
-789 -804 0
-790 -805 0
-786 -966 0
-787 -967 0
-788 -968 0
-789 -969 0
-790 -970 0
-786 -1221 0
-787 -1222 0
-788 -1223 0
-789 -1224 0
-790 -1225 0
-786 -1326 0
-787 -1327 0
-788 -1328 0
-789 -1329 0
-790 -1330 0
-786 -1576 0
-787 -1577 0
-788 -1578 0
-789 -1579 0
-790 -1580 0
-786 -1591 0
-787 -1592 0
-788 -1593 0
-789 -1594 0
-790 -1595 0
-786 -1706 0
-787 -1707 0
-788 -1708 0
-789 -1709 0
-790 -1710 0
-786 -1751 0
-787 -1752 0
-788 -1753 0
-789 -1754 0
-790 -1755 0
-786 -1756 0
-787 -1757 0
-788 -1758 0
-789 -1759 0
-790 -1760 0
-786 -1806 0
-787 -1807 0
-788 -1808 0
-789 -1809 0
-790 -1810 0
-791 -806 0
-792 -807 0
-793 -808 0
-794 -809 0
-795 -810 0
-791 -1106 0
-792 -1107 0
-793 -1108 0
-794 -1109 0
-795 -1110 0
-791 -1341 0
-792 -1342 0
-793 -1343 0
-794 -1344 0
-795 -1345 0
-791 -1446 0
-792 -1447 0
-793 -1448 0
-794 -1449 0
-795 -1450 0
-791 -1581 0
-792 -1582 0
-793 -1583 0
-794 -1584 0
-795 -1585 0
-791 -1596 0
-792 -1597 0
-793 -1598 0
-794 -1599 0
-795 -1600 0
-791 -1756 0
-792 -1757 0
-793 -1758 0
-794 -1759 0
-795 -1760 0
-796 -811 0
-797 -812 0
-798 -813 0
-799 -814 0
-800 -815 0
-796 -951 0
-797 -952 0
-798 -953 0
-799 -954 0
-800 -955 0
-796 -1116 0
-797 -1117 0
-798 -1118 0
-799 -1119 0
-800 -1120 0
-796 -1346 0
-797 -1347 0
-798 -1348 0
-799 -1349 0
-800 -1350 0
-796 -1451 0
-797 -1452 0
-798 -1453 0
-799 -1454 0
-800 -1455 0
-796 -1461 0
-797 -1462 0
-798 -1463 0
-799 -1464 0
-800 -1465 0
-796 -1586 0
-797 -1587 0
-798 -1588 0
-799 -1589 0
-800 -1590 0
-796 -1601 0
-797 -1602 0
-798 -1603 0
-799 -1604 0
-800 -1605 0
-796 -1651 0
-797 -1652 0
-798 -1653 0
-799 -1654 0
-800 -1655 0
-796 -1726 0
-797 -1727 0
-798 -1728 0
-799 -1729 0
-800 -1730 0
-796 -1811 0
-797 -1812 0
-798 -1813 0
-799 -1814 0
-800 -1815 0
-801 -826 0
-802 -827 0
-803 -828 0
-804 -829 0
-805 -830 0
-801 -976 0
-802 -977 0
-803 -978 0
-804 -979 0
-805 -980 0
-801 -1111 0
-802 -1112 0
-803 -1113 0
-804 -1114 0
-805 -1115 0
-801 -1331 0
-802 -1332 0
-803 -1333 0
-804 -1334 0
-805 -1335 0
-801 -1456 0
-802 -1457 0
-803 -1458 0
-804 -1459 0
-805 -1460 0
-801 -1466 0
-802 -1467 0
-803 -1468 0
-804 -1469 0
-805 -1470 0
-801 -1591 0
-802 -1592 0
-803 -1593 0
-804 -1594 0
-805 -1595 0
-801 -1606 0
-802 -1607 0
-803 -1608 0
-804 -1609 0
-805 -1610 0
-801 -1656 0
-802 -1657 0
-803 -1658 0
-804 -1659 0
-805 -1660 0
-801 -1726 0
-802 -1727 0
-803 -1728 0
-804 -1729 0
-805 -1730 0
-801 -1816 0
-802 -1817 0
-803 -1818 0
-804 -1819 0
-805 -1820 0
-806 -831 0
-807 -832 0
-808 -833 0
-809 -834 0
-810 -835 0
-806 -1121 0
-807 -1122 0
-808 -1123 0
-809 -1124 0
-810 -1125 0
-806 -1336 0
-807 -1337 0
-808 -1338 0
-809 -1339 0
-810 -1340 0
-806 -1471 0
-807 -1472 0
-808 -1473 0
-809 -1474 0
-810 -1475 0
-806 -1596 0
-807 -1597 0
-808 -1598 0
-809 -1599 0
-810 -1600 0
-806 -1611 0
-807 -1612 0
-808 -1613 0
-809 -1614 0
-810 -1615 0
-806 -1761 0
-807 -1762 0
-808 -1763 0
-809 -1764 0
-810 -1765 0
-811 -836 0
-812 -837 0
-813 -838 0
-814 -839 0
-815 -840 0
-811 -961 0
-812 -962 0
-813 -963 0
-814 -964 0
-815 -965 0
-811 -1221 0
-812 -1222 0
-813 -1223 0
-814 -1224 0
-815 -1225 0
-811 -1351 0
-812 -1352 0
-813 -1353 0
-814 -1354 0
-815 -1355 0
-811 -1601 0
-812 -1602 0
-813 -1603 0
-814 -1604 0
-815 -1605 0
-811 -1616 0
-812 -1617 0
-813 -1618 0
-814 -1619 0
-815 -1620 0
-811 -1711 0
-812 -1712 0
-813 -1713 0
-814 -1714 0
-815 -1715 0
-811 -1761 0
-812 -1762 0
-813 -1763 0
-814 -1764 0
-815 -1765 0
-811 -1766 0
-812 -1767 0
-813 -1768 0
-814 -1769 0
-815 -1770 0
-811 -1821 0
-812 -1822 0
-813 -1823 0
-814 -1824 0
-815 -1825 0
-816 -926 0
-817 -927 0
-818 -928 0
-819 -929 0
-820 -930 0
-816 -981 0
-817 -982 0
-818 -983 0
-819 -984 0
-820 -985 0
-816 -1341 0
-817 -1342 0
-818 -1343 0
-819 -1344 0
-820 -1345 0
-816 -1476 0
-817 -1477 0
-818 -1478 0
-819 -1479 0
-820 -1480 0
-816 -1661 0
-817 -1662 0
-818 -1663 0
-819 -1664 0
-820 -1665 0
-821 -931 0
-822 -932 0
-823 -933 0
-824 -934 0
-825 -935 0
-821 -966 0
-822 -967 0
-823 -968 0
-824 -969 0
-825 -970 0
-821 -1356 0
-822 -1357 0
-823 -1358 0
-824 -1359 0
-825 -1360 0
-821 -1461 0
-822 -1462 0
-823 -1463 0
-824 -1464 0
-825 -1465 0
-821 -1656 0
-822 -1657 0
-823 -1658 0
-824 -1659 0
-825 -1660 0
-821 -1766 0
-822 -1767 0
-823 -1768 0
-824 -1769 0
-825 -1770 0
-826 -841 0
-827 -842 0
-828 -843 0
-829 -844 0
-830 -845 0
-826 -986 0
-827 -987 0
-828 -988 0
-829 -989 0
-830 -990 0
-826 -1226 0
-827 -1227 0
-828 -1228 0
-829 -1229 0
-830 -1230 0
-826 -1346 0
-827 -1347 0
-828 -1348 0
-829 -1349 0
-830 -1350 0
-826 -1606 0
-827 -1607 0
-828 -1608 0
-829 -1609 0
-830 -1610 0
-826 -1621 0
-827 -1622 0
-828 -1623 0
-829 -1624 0
-830 -1625 0
-826 -1771 0
-827 -1772 0
-828 -1773 0
-829 -1774 0
-830 -1775 0
-826 -1826 0
-827 -1827 0
-828 -1828 0
-829 -1829 0
-830 -1830 0
-831 -846 0
-832 -847 0
-833 -848 0
-834 -849 0
-835 -850 0
-831 -1116 0
-832 -1117 0
-833 -1118 0
-834 -1119 0
-835 -1120 0
-831 -1361 0
-832 -1362 0
-833 -1363 0
-834 -1364 0
-835 -1365 0
-831 -1466 0
-832 -1467 0
-833 -1468 0
-834 -1469 0
-835 -1470 0
-831 -1611 0
-832 -1612 0
-833 -1613 0
-834 -1614 0
-835 -1615 0
-831 -1626 0
-832 -1627 0
-833 -1628 0
-834 -1629 0
-835 -1630 0
-831 -1711 0
-832 -1712 0
-833 -1713 0
-834 -1714 0
-835 -1715 0
-831 -1771 0
-832 -1772 0
-833 -1773 0
-834 -1774 0
-835 -1775 0
-836 -851 0
-837 -852 0
-838 -853 0
-839 -854 0
-840 -855 0
-836 -971 0
-837 -972 0
-838 -973 0
-839 -974 0
-840 -975 0
-836 -1366 0
-837 -1367 0
-838 -1368 0
-839 -1369 0
-840 -1370 0
-836 -1471 0
-837 -1472 0
-838 -1473 0
-839 -1474 0
-840 -1475 0
-836 -1481 0
-837 -1482 0
-838 -1483 0
-839 -1484 0
-840 -1485 0
-836 -1616 0
-837 -1617 0
-838 -1618 0
-839 -1619 0
-840 -1620 0
-836 -1631 0
-837 -1632 0
-838 -1633 0
-839 -1634 0
-840 -1635 0
-836 -1661 0
-837 -1662 0
-838 -1663 0
-839 -1664 0
-840 -1665 0
-836 -1731 0
-837 -1732 0
-838 -1733 0
-839 -1734 0
-840 -1735 0
-836 -1831 0
-837 -1832 0
-838 -1833 0
-839 -1834 0
-840 -1835 0
-841 -936 0
-842 -937 0
-843 -938 0
-844 -939 0
-845 -940 0
-841 -1121 0
-842 -1122 0
-843 -1123 0
-844 -1124 0
-845 -1125 0
-841 -1351 0
-842 -1352 0
-843 -1353 0
-844 -1354 0
-845 -1355 0
-841 -1476 0
-842 -1477 0
-843 -1478 0
-844 -1479 0
-845 -1480 0
-841 -1486 0
-842 -1487 0
-843 -1488 0
-844 -1489 0
-845 -1490 0
-841 -1621 0
-842 -1622 0
-843 -1623 0
-844 -1624 0
-845 -1625 0
-841 -1636 0
-842 -1637 0
-843 -1638 0
-844 -1639 0
-845 -1640 0
-841 -1666 0
-842 -1667 0
-843 -1668 0
-844 -1669 0
-845 -1670 0
-841 -1731 0
-842 -1732 0
-843 -1733 0
-844 -1734 0
-845 -1735 0
-841 -1836 0
-842 -1837 0
-843 -1838 0
-844 -1839 0
-845 -1840 0
-846 -1356 0
-847 -1357 0
-848 -1358 0
-849 -1359 0
-850 -1360 0
-846 -1431 0
-847 -1432 0
-848 -1433 0
-849 -1434 0
-850 -1435 0
-846 -1551 0
-847 -1552 0
-848 -1553 0
-849 -1554 0
-850 -1555 0
-846 -1626 0
-847 -1627 0
-848 -1628 0
-849 -1629 0
-850 -1630 0
-846 -1716 0
-847 -1717 0
-848 -1718 0
-849 -1719 0
-850 -1720 0
-846 -1776 0
-847 -1777 0
-848 -1778 0
-849 -1779 0
-850 -1780 0
-851 -981 0
-852 -982 0
-853 -983 0
-854 -984 0
-855 -985 0
-851 -1226 0
-852 -1227 0
-853 -1228 0
-854 -1229 0
-855 -1230 0
-851 -1311 0
-852 -1312 0
-853 -1313 0
-854 -1314 0
-855 -1315 0
-851 -1556 0
-852 -1557 0
-853 -1558 0
-854 -1559 0
-855 -1560 0
-851 -1631 0
-852 -1632 0
-853 -1633 0
-854 -1634 0
-855 -1635 0
-851 -1701 0
-852 -1702 0
-853 -1703 0
-854 -1704 0
-855 -1705 0
-851 -1776 0
-852 -1777 0
-853 -1778 0
-854 -1779 0
-855 -1780 0
-851 -1781 0
-852 -1782 0
-853 -1783 0
-854 -1784 0
-855 -1785 0
-851 -1841 0
-852 -1842 0
-853 -1843 0
-854 -1844 0
-855 -1845 0
-856 -931 0
-857 -932 0
-858 -933 0
-859 -934 0
-860 -935 0
-856 -941 0
-857 -942 0
-858 -943 0
-859 -944 0
-860 -945 0
-856 -1361 0
-857 -1362 0
-858 -1363 0
-859 -1364 0
-860 -1365 0
-856 -1436 0
-857 -1437 0
-858 -1438 0
-859 -1439 0
-860 -1440 0
-856 -1641 0
-857 -1642 0
-858 -1643 0
-859 -1644 0
-860 -1645 0
-856 -1736 0
-857 -1737 0
-858 -1738 0
-859 -1739 0
-860 -1740 0
-861 -1276 0
-862 -1277 0
-863 -1278 0
-864 -1279 0
-865 -1280 0
-861 -1426 0
-862 -1427 0
-863 -1428 0
-864 -1429 0
-865 -1430 0
-861 -1521 0
-862 -1522 0
-863 -1523 0
-864 -1524 0
-865 -1525 0
-861 -1736 0
-862 -1737 0
-863 -1738 0
-864 -1739 0
-865 -1740 0
-861 -3046 0
-862 -3047 0
-863 -3048 0
-864 -3049 0
-865 -3050 0
-866 -1381 0
-867 -1382 0
-868 -1383 0
-869 -1384 0
-870 -1385 0
-866 -1741 0
-867 -1742 0
-868 -1743 0
-869 -1744 0
-870 -1745 0
-871 -1246 0
-872 -1247 0
-873 -1248 0
-874 -1249 0
-875 -1250 0
-871 -1376 0
-872 -1377 0
-873 -1378 0
-874 -1379 0
-875 -1380 0
-871 -1746 0
-872 -1747 0
-873 -1748 0
-874 -1749 0
-875 -1750 0
-871 -3056 0
-872 -3057 0
-873 -3058 0
-874 -3059 0
-875 -3060 0
-876 -1086 0
-877 -1087 0
-878 -1088 0
-879 -1089 0
-880 -1090 0
-876 -1251 0
-877 -1252 0
-878 -1253 0
-879 -1254 0
-880 -1255 0
-876 -1391 0
-877 -1392 0
-878 -1393 0
-879 -1394 0
-880 -1395 0
-876 -1526 0
-877 -1527 0
-878 -1528 0
-879 -1529 0
-880 -1530 0
-876 -4386 0
-877 -4387 0
-878 -4388 0
-879 -4389 0
-880 -4390 0
-881 -1096 0
-882 -1097 0
-883 -1098 0
-884 -1099 0
-885 -1100 0
-881 -1236 0
-882 -1237 0
-883 -1238 0
-884 -1239 0
-885 -1240 0
-881 -1386 0
-882 -1387 0
-883 -1388 0
-884 -1389 0
-885 -1390 0
-881 -1531 0
-882 -1532 0
-883 -1533 0
-884 -1534 0
-885 -1535 0
-881 -1751 0
-882 -1752 0
-883 -1753 0
-884 -1754 0
-885 -1755 0
-881 -3066 0
-882 -3067 0
-883 -3068 0
-884 -3069 0
-885 -3070 0
-886 -1241 0
-887 -1242 0
-888 -1243 0
-889 -1244 0
-890 -1245 0
-886 -1401 0
-887 -1402 0
-888 -1403 0
-889 -1404 0
-890 -1405 0
-886 -1756 0
-887 -1757 0
-888 -1758 0
-889 -1759 0
-890 -1760 0
-886 -1846 0
-887 -1847 0
-888 -1848 0
-889 -1849 0
-890 -1850 0
-891 -1266 0
-892 -1267 0
-893 -1268 0
-894 -1269 0
-895 -1270 0
-891 -1396 0
-892 -1397 0
-893 -1398 0
-894 -1399 0
-895 -1400 0
-891 -1761 0
-892 -1762 0
-893 -1763 0
-894 -1764 0
-895 -1765 0
-891 -1851 0
-892 -1852 0
-893 -1853 0
-894 -1854 0
-895 -1855 0
-891 -3076 0
-892 -3077 0
-893 -3078 0
-894 -3079 0
-895 -3080 0
-896 -1091 0
-897 -1092 0
-898 -1093 0
-899 -1094 0
-900 -1095 0
-896 -1271 0
-897 -1272 0
-898 -1273 0
-899 -1274 0
-900 -1275 0
-896 -1411 0
-897 -1412 0
-898 -1413 0
-899 -1414 0
-900 -1415 0
-896 -1536 0
-897 -1537 0
-898 -1538 0
-899 -1539 0
-900 -1540 0
-896 -1766 0
-897 -1767 0
-898 -1768 0
-899 -1769 0
-900 -1770 0
-901 -1101 0
-902 -1102 0
-903 -1103 0
-904 -1104 0
-905 -1105 0
-901 -1256 0
-902 -1257 0
-903 -1258 0
-904 -1259 0
-905 -1260 0
-901 -1406 0
-902 -1407 0
-903 -1408 0
-904 -1409 0
-905 -1410 0
-901 -1541 0
-902 -1542 0
-903 -1543 0
-904 -1544 0
-905 -1545 0
-901 -3086 0
-902 -3087 0
-903 -3088 0
-904 -3089 0
-905 -3090 0
-906 -1261 0
-907 -1262 0
-908 -1263 0
-909 -1264 0
-910 -1265 0
-906 -1421 0
-907 -1422 0
-908 -1423 0
-909 -1424 0
-910 -1425 0
-906 -1771 0
-907 -1772 0
-908 -1773 0
-909 -1774 0
-910 -1775 0
-911 -1416 0
-912 -1417 0
-913 -1418 0
-914 -1419 0
-915 -1420 0
-911 -1776 0
-912 -1777 0
-913 -1778 0
-914 -1779 0
-915 -1780 0
-911 -3096 0
-912 -3097 0
-913 -3098 0
-914 -3099 0
-915 -3100 0
-916 -1231 0
-917 -1232 0
-918 -1233 0
-919 -1234 0
-920 -1235 0
-916 -1371 0
-917 -1372 0
-918 -1373 0
-919 -1374 0
-920 -1375 0
-916 -1546 0
-917 -1547 0
-918 -1548 0
-919 -1549 0
-920 -1550 0
-916 -1781 0
-917 -1782 0
-918 -1783 0
-919 -1784 0
-920 -1785 0
-936 -1011 0
-937 -1012 0
-938 -1013 0
-939 -1014 0
-940 -1015 0
-936 -1076 0
-937 -1077 0
-938 -1078 0
-939 -1079 0
-940 -1080 0
-936 -1666 0
-937 -1667 0
-938 -1668 0
-939 -1669 0
-940 -1670 0
-941 -996 0
-942 -997 0
-943 -998 0
-944 -999 0
-945 -1000 0
-941 -1021 0
-942 -1022 0
-943 -1023 0
-944 -1024 0
-945 -1025 0
-941 -1236 0
-942 -1237 0
-943 -1238 0
-944 -1239 0
-945 -1240 0
-941 -1496 0
-942 -1497 0
-943 -1498 0
-944 -1499 0
-945 -1500 0
-941 -1641 0
-942 -1642 0
-943 -1643 0
-944 -1644 0
-945 -1645 0
-946 -1001 0
-947 -1002 0
-948 -1003 0
-949 -1004 0
-950 -1005 0
-946 -1026 0
-947 -1027 0
-948 -1028 0
-949 -1029 0
-950 -1030 0
-946 -1231 0
-947 -1232 0
-948 -1233 0
-949 -1234 0
-950 -1235 0
-946 -1241 0
-947 -1242 0
-948 -1243 0
-949 -1244 0
-950 -1245 0
-946 -1491 0
-947 -1492 0
-948 -1493 0
-949 -1494 0
-950 -1495 0
-946 -1646 0
-947 -1647 0
-948 -1648 0
-949 -1649 0
-950 -1650 0
-946 -4386 0
-947 -4387 0
-948 -4388 0
-949 -4389 0
-950 -4390 0
-951 -1011 0
-952 -1012 0
-953 -1013 0
-954 -1014 0
-955 -1015 0
-951 -1036 0
-952 -1037 0
-953 -1038 0
-954 -1039 0
-955 -1040 0
-951 -1651 0
-952 -1652 0
-953 -1653 0
-954 -1654 0
-955 -1655 0
-956 -1016 0
-957 -1017 0
-958 -1018 0
-959 -1019 0
-960 -1020 0
-956 -1041 0
-957 -1042 0
-958 -1043 0
-959 -1044 0
-960 -1045 0
-956 -1646 0
-957 -1647 0
-958 -1648 0
-959 -1649 0
-960 -1650 0
-961 -1026 0
-962 -1027 0
-963 -1028 0
-964 -1029 0
-965 -1030 0
-961 -1051 0
-962 -1052 0
-963 -1053 0
-964 -1054 0
-965 -1055 0
-961 -1246 0
-962 -1247 0
-963 -1248 0
-964 -1249 0
-965 -1250 0
-961 -1256 0
-962 -1257 0
-963 -1258 0
-964 -1259 0
-965 -1260 0
-961 -1506 0
-962 -1507 0
-963 -1508 0
-964 -1509 0
-965 -1510 0
-961 -1651 0
-962 -1652 0
-963 -1653 0
-964 -1654 0
-965 -1655 0
-961 -1851 0
-962 -1852 0
-963 -1853 0
-964 -1854 0
-965 -1855 0
-966 -1031 0
-967 -1032 0
-968 -1033 0
-969 -1034 0
-970 -1035 0
-966 -1056 0
-967 -1057 0
-968 -1058 0
-969 -1059 0
-970 -1060 0
-966 -1251 0
-967 -1252 0
-968 -1253 0
-969 -1254 0
-970 -1255 0
-966 -1261 0
-967 -1262 0
-968 -1263 0
-969 -1264 0
-970 -1265 0
-966 -1501 0
-967 -1502 0
-968 -1503 0
-969 -1504 0
-970 -1505 0
-966 -1656 0
-967 -1657 0
-968 -1658 0
-969 -1659 0
-970 -1660 0
-966 -1846 0
-967 -1847 0
-968 -1848 0
-969 -1849 0
-970 -1850 0
-971 -1041 0
-972 -1042 0
-973 -1043 0
-974 -1044 0
-975 -1045 0
-971 -1066 0
-972 -1067 0
-973 -1068 0
-974 -1069 0
-975 -1070 0
-971 -1661 0
-972 -1662 0
-973 -1663 0
-974 -1664 0
-975 -1665 0
-976 -1046 0
-977 -1047 0
-978 -1048 0
-979 -1049 0
-980 -1050 0
-976 -1071 0
-977 -1072 0
-978 -1073 0
-979 -1074 0
-980 -1075 0
-976 -1656 0
-977 -1657 0
-978 -1658 0
-979 -1659 0
-980 -1660 0
-981 -1056 0
-982 -1057 0
-983 -1058 0
-984 -1059 0
-985 -1060 0
-981 -1081 0
-982 -1082 0
-983 -1083 0
-984 -1084 0
-985 -1085 0
-981 -1266 0
-982 -1267 0
-983 -1268 0
-984 -1269 0
-985 -1270 0
-981 -1276 0
-982 -1277 0
-983 -1278 0
-984 -1279 0
-985 -1280 0
-981 -1516 0
-982 -1517 0
-983 -1518 0
-984 -1519 0
-985 -1520 0
-981 -1661 0
-982 -1662 0
-983 -1663 0
-984 -1664 0
-985 -1665 0
-986 -996 0
-987 -997 0
-988 -998 0
-989 -999 0
-990 -1000 0
-986 -1061 0
-987 -1062 0
-988 -1063 0
-989 -1064 0
-990 -1065 0
-986 -1271 0
-987 -1272 0
-988 -1273 0
-989 -1274 0
-990 -1275 0
-986 -1511 0
-987 -1512 0
-988 -1513 0
-989 -1514 0
-990 -1515 0
-986 -1666 0
-987 -1667 0
-988 -1668 0
-989 -1669 0
-990 -1670 0
-991 -1006 0
-992 -1007 0
-993 -1008 0
-994 -1009 0
-995 -1010 0
-991 -1071 0
-992 -1072 0
-993 -1073 0
-994 -1074 0
-995 -1075 0
-991 -1641 0
-992 -1642 0
-993 -1643 0
-994 -1644 0
-995 -1645 0
-996 -1136 0
-997 -1137 0
-998 -1138 0
-999 -1139 0
-1000 -1140 0
-996 -1201 0
-997 -1202 0
-998 -1203 0
-999 -1204 0
-1000 -1205 0
-996 -1376 0
-997 -1377 0
-998 -1378 0
-999 -1379 0
-1000 -1380 0
-996 -1421 0
-997 -1422 0
-998 -1423 0
-999 -1424 0
-1000 -1425 0
-996 -1741 0
-997 -1742 0
-998 -1743 0
-999 -1744 0
-1000 -1745 0
-996 -1776 0
-997 -1777 0
-998 -1778 0
-999 -1779 0
-1000 -1780 0
-996 -3701 0
-997 -3702 0
-998 -3703 0
-999 -3704 0
-1000 -3705 0
-1001 -1636 0
-1002 -1637 0
-1003 -1638 0
-1004 -1639 0
-1005 -1640 0
-1001 -1781 0
-1002 -1782 0
-1003 -1783 0
-1004 -1784 0
-1005 -1785 0
-1001 -3046 0
-1002 -3047 0
-1003 -3048 0
-1004 -3049 0
-1005 -3050 0
-1006 -1211 0
-1007 -1212 0
-1008 -1213 0
-1009 -1214 0
-1010 -1215 0
-1006 -1571 0
-1007 -1572 0
-1008 -1573 0
-1009 -1574 0
-1010 -1575 0
-1006 -1741 0
-1007 -1742 0
-1008 -1743 0
-1009 -1744 0
-1010 -1745 0
-1011 -1131 0
-1012 -1132 0
-1013 -1133 0
-1014 -1134 0
-1015 -1135 0
-1011 -1146 0
-1012 -1147 0
-1013 -1148 0
-1014 -1149 0
-1015 -1150 0
-1011 -1371 0
-1012 -1372 0
-1013 -1373 0
-1014 -1374 0
-1015 -1375 0
-1011 -1386 0
-1012 -1387 0
-1013 -1388 0
-1014 -1389 0
-1015 -1390 0
-1011 -3711 0
-1012 -3712 0
-1013 -3713 0
-1014 -3714 0
-1015 -3715 0
-1016 -1156 0
-1017 -1157 0
-1018 -1158 0
-1019 -1159 0
-1020 -1160 0
-1016 -1561 0
-1017 -1562 0
-1018 -1563 0
-1019 -1564 0
-1020 -1565 0
-1016 -1746 0
-1017 -1747 0
-1018 -1748 0
-1019 -1749 0
-1020 -1750 0
-1016 -3056 0
-1017 -3057 0
-1018 -3058 0
-1019 -3059 0
-1020 -3060 0
-1021 -1586 0
-1022 -1587 0
-1023 -1588 0
-1024 -1589 0
-1025 -1590 0
-1021 -1751 0
-1022 -1752 0
-1023 -1753 0
-1024 -1754 0
-1025 -1755 0
-1021 -3721 0
-1022 -3722 0
-1023 -3723 0
-1024 -3724 0
-1025 -3725 0
-1026 -1141 0
-1027 -1142 0
-1028 -1143 0
-1029 -1144 0
-1030 -1145 0
-1026 -1166 0
-1027 -1167 0
-1028 -1168 0
-1029 -1169 0
-1030 -1170 0
-1026 -1381 0
-1027 -1382 0
-1028 -1383 0
-1029 -1384 0
-1030 -1385 0
-1026 -1396 0
-1027 -1397 0
-1028 -1398 0
-1029 -1399 0
-1030 -1400 0
-1026 -1746 0
-1027 -1747 0
-1028 -1748 0
-1029 -1749 0
-1030 -1750 0
-1026 -1756 0
-1027 -1757 0
-1028 -1758 0
-1029 -1759 0
-1030 -1760 0
-1026 -3731 0
-1027 -3732 0
-1028 -3733 0
-1029 -3734 0
-1030 -3735 0
-1031 -1576 0
-1032 -1577 0
-1033 -1578 0
-1034 -1579 0
-1035 -1580 0
-1031 -3066 0
-1032 -3067 0
-1033 -3068 0
-1034 -3069 0
-1035 -3070 0
-1036 -1151 0
-1037 -1152 0
-1038 -1153 0
-1039 -1154 0
-1040 -1155 0
-1036 -1601 0
-1037 -1602 0
-1038 -1603 0
-1039 -1604 0
-1040 -1605 0
-1036 -1756 0
-1037 -1757 0
-1038 -1758 0
-1039 -1759 0
-1040 -1760 0
-1041 -1161 0
-1042 -1162 0
-1043 -1163 0
-1044 -1164 0
-1045 -1165 0
-1041 -1176 0
-1042 -1177 0
-1043 -1178 0
-1044 -1179 0
-1045 -1180 0
-1041 -1391 0
-1042 -1392 0
-1043 -1393 0
-1044 -1394 0
-1045 -1395 0
-1041 -1406 0
-1042 -1407 0
-1043 -1408 0
-1044 -1409 0
-1045 -1410 0
-1041 -3741 0
-1042 -3742 0
-1043 -3743 0
-1044 -3744 0
-1045 -3745 0
-1046 -1186 0
-1047 -1187 0
-1048 -1188 0
-1049 -1189 0
-1050 -1190 0
-1046 -1591 0
-1047 -1592 0
-1048 -1593 0
-1049 -1594 0
-1050 -1595 0
-1046 -1761 0
-1047 -1762 0
-1048 -1763 0
-1049 -1764 0
-1050 -1765 0
-1046 -3076 0
-1047 -3077 0
-1048 -3078 0
-1049 -3079 0
-1050 -3080 0
-1051 -1616 0
-1052 -1617 0
-1053 -1618 0
-1054 -1619 0
-1055 -1620 0
-1051 -3751 0
-1052 -3752 0
-1053 -3753 0
-1054 -3754 0
-1055 -3755 0
-1056 -1171 0
-1057 -1172 0
-1058 -1173 0
-1059 -1174 0
-1060 -1175 0
-1056 -1196 0
-1057 -1197 0
-1058 -1198 0
-1059 -1199 0
-1060 -1200 0
-1056 -1401 0
-1057 -1402 0
-1058 -1403 0
-1059 -1404 0
-1060 -1405 0
-1056 -1416 0
-1057 -1417 0
-1058 -1418 0
-1059 -1419 0
-1060 -1420 0
-1056 -1761 0
-1057 -1762 0
-1058 -1763 0
-1059 -1764 0
-1060 -1765 0
-1056 -1771 0
-1057 -1772 0
-1058 -1773 0
-1059 -1774 0
-1060 -1775 0
-1056 -3671 0
-1057 -3672 0
-1058 -3673 0
-1059 -3674 0
-1060 -3675 0
-1061 -1606 0
-1062 -1607 0
-1063 -1608 0
-1064 -1609 0
-1065 -1610 0
-1061 -1766 0
-1062 -1767 0
-1063 -1768 0
-1064 -1769 0
-1065 -1770 0
-1061 -3086 0
-1062 -3087 0
-1063 -3088 0
-1064 -3089 0
-1065 -3090 0
-1066 -1181 0
-1067 -1182 0
-1068 -1183 0
-1069 -1184 0
-1070 -1185 0
-1066 -1631 0
-1067 -1632 0
-1068 -1633 0
-1069 -1634 0
-1070 -1635 0
-1066 -1771 0
-1067 -1772 0
-1068 -1773 0
-1069 -1774 0
-1070 -1775 0
-1071 -1191 0
-1072 -1192 0
-1073 -1193 0
-1074 -1194 0
-1075 -1195 0
-1071 -1206 0
-1072 -1207 0
-1073 -1208 0
-1074 -1209 0
-1075 -1210 0
-1071 -1411 0
-1072 -1412 0
-1073 -1413 0
-1074 -1414 0
-1075 -1415 0
-1071 -1426 0
-1072 -1427 0
-1073 -1428 0
-1074 -1429 0
-1075 -1430 0
-1071 -3681 0
-1072 -3682 0
-1073 -3683 0
-1074 -3684 0
-1075 -3685 0
-1076 -1126 0
-1077 -1127 0
-1078 -1128 0
-1079 -1129 0
-1080 -1130 0
-1076 -1621 0
-1077 -1622 0
-1078 -1623 0
-1079 -1624 0
-1080 -1625 0
-1076 -1776 0
-1077 -1777 0
-1078 -1778 0
-1079 -1779 0
-1080 -1780 0
-1076 -3096 0
-1077 -3097 0
-1078 -3098 0
-1079 -3099 0
-1080 -3100 0
-1081 -1556 0
-1082 -1557 0
-1083 -1558 0
-1084 -1559 0
-1085 -1560 0
-1081 -1736 0
-1082 -1737 0
-1083 -1738 0
-1084 -1739 0
-1085 -1740 0
-1081 -3691 0
-1082 -3692 0
-1083 -3693 0
-1084 -3694 0
-1085 -3695 0
-1086 -1441 0
-1087 -1442 0
-1088 -1443 0
-1089 -1444 0
-1090 -1445 0
-1091 -1461 0
-1092 -1462 0
-1093 -1463 0
-1094 -1464 0
-1095 -1465 0
-1096 -1456 0
-1097 -1457 0
-1098 -1458 0
-1099 -1459 0
-1100 -1460 0
-1101 -1476 0
-1102 -1477 0
-1103 -1478 0
-1104 -1479 0
-1105 -1480 0
-1106 -1281 0
-1107 -1282 0
-1108 -1283 0
-1109 -1284 0
-1110 -1285 0
-1106 -1391 0
-1107 -1392 0
-1108 -1393 0
-1109 -1394 0
-1110 -1395 0
-1111 -1296 0
-1112 -1297 0
-1113 -1298 0
-1114 -1299 0
-1115 -1300 0
-1111 -1386 0
-1112 -1387 0
-1113 -1388 0
-1114 -1389 0
-1115 -1390 0
-1111 -1706 0
-1112 -1707 0
-1113 -1708 0
-1114 -1709 0
-1115 -1710 0
-1116 -1291 0
-1117 -1292 0
-1118 -1293 0
-1119 -1294 0
-1120 -1295 0
-1116 -1411 0
-1117 -1412 0
-1118 -1413 0
-1119 -1414 0
-1120 -1415 0
-1116 -1711 0
-1117 -1712 0
-1118 -1713 0
-1119 -1714 0
-1120 -1715 0
-1121 -1306 0
-1122 -1307 0
-1123 -1308 0
-1124 -1309 0
-1125 -1310 0
-1121 -1406 0
-1122 -1407 0
-1123 -1408 0
-1124 -1409 0
-1125 -1410 0
-1126 -1316 0
-1127 -1317 0
-1128 -1318 0
-1129 -1319 0
-1130 -1320 0
-1126 -1481 0
-1127 -1482 0
-1128 -1483 0
-1129 -1484 0
-1130 -1485 0
-1126 -1776 0
-1127 -1777 0
-1128 -1778 0
-1129 -1779 0
-1130 -1780 0
-1126 -2701 0
-1127 -2702 0
-1128 -2703 0
-1129 -2704 0
-1130 -2705 0
-1126 -2746 0
-1127 -2747 0
-1128 -2748 0
-1129 -2749 0
-1130 -2750 0
-1126 -2836 0
-1127 -2837 0
-1128 -2838 0
-1129 -2839 0
-1130 -2840 0
-1126 -2981 0
-1127 -2982 0
-1128 -2983 0
-1129 -2984 0
-1130 -2985 0
-1126 -3216 0
-1127 -3217 0
-1128 -3218 0
-1129 -3219 0
-1130 -3220 0
-1126 -3571 0
-1127 -3572 0
-1128 -3573 0
-1129 -3574 0
-1130 -3575 0
-1126 -3856 0
-1127 -3857 0
-1128 -3858 0
-1129 -3859 0
-1130 -3860 0
-1126 -3991 0
-1127 -3992 0
-1128 -3993 0
-1129 -3994 0
-1130 -3995 0
-1131 -1281 0
-1132 -1282 0
-1133 -1283 0
-1134 -1284 0
-1135 -1285 0
-1131 -1366 0
-1132 -1367 0
-1133 -1368 0
-1134 -1369 0
-1135 -1370 0
-1131 -1841 0
-1132 -1842 0
-1133 -1843 0
-1134 -1844 0
-1135 -1845 0
-1136 -1326 0
-1137 -1327 0
-1138 -1328 0
-1139 -1329 0
-1140 -1330 0
-1136 -1431 0
-1137 -1432 0
-1138 -1433 0
-1139 -1434 0
-1140 -1435 0
-1136 -1676 0
-1137 -1677 0
-1138 -1678 0
-1139 -1679 0
-1140 -1680 0
-1136 -1741 0
-1137 -1742 0
-1138 -1743 0
-1139 -1744 0
-1140 -1745 0
-1136 -1796 0
-1137 -1797 0
-1138 -1798 0
-1139 -1799 0
-1140 -1800 0
-1136 -2631 0
-1137 -2632 0
-1138 -2633 0
-1139 -2634 0
-1140 -2635 0
-1136 -2706 0
-1137 -2707 0
-1138 -2708 0
-1139 -2709 0
-1140 -2710 0
-1136 -2756 0
-1137 -2757 0
-1138 -2758 0
-1139 -2759 0
-1140 -2760 0
-1136 -2846 0
-1137 -2847 0
-1138 -2848 0
-1139 -2849 0
-1140 -2850 0
-1136 -2996 0
-1137 -2997 0
-1138 -2998 0
-1139 -2999 0
-1140 -3000 0
-1136 -3221 0
-1137 -3222 0
-1138 -3223 0
-1139 -3224 0
-1140 -3225 0
-1136 -3581 0
-1137 -3582 0
-1138 -3583 0
-1139 -3584 0
-1140 -3585 0
-1136 -3831 0
-1137 -3832 0
-1138 -3833 0
-1139 -3834 0
-1140 -3835 0
-1136 -3866 0
-1137 -3867 0
-1138 -3868 0
-1139 -3869 0
-1140 -3870 0
-1136 -4341 0
-1137 -4342 0
-1138 -4343 0
-1139 -4344 0
-1140 -4345 0
-1141 -1311 0
-1142 -1312 0
-1143 -1313 0
-1144 -1314 0
-1145 -1315 0
-1141 -1446 0
-1142 -1447 0
-1143 -1448 0
-1144 -1449 0
-1145 -1450 0
-1141 -1671 0
-1142 -1672 0
-1143 -1673 0
-1144 -1674 0
-1145 -1675 0
-1141 -1746 0
-1142 -1747 0
-1143 -1748 0
-1144 -1749 0
-1145 -1750 0
-1141 -1791 0
-1142 -1792 0
-1143 -1793 0
-1144 -1794 0
-1145 -1795 0
-1146 -1286 0
-1147 -1287 0
-1148 -1288 0
-1149 -1289 0
-1150 -1290 0
-1146 -1331 0
-1147 -1332 0
-1148 -1333 0
-1149 -1334 0
-1150 -1335 0
-1146 -1806 0
-1147 -1807 0
-1148 -1808 0
-1149 -1809 0
-1150 -1810 0
-1146 -2716 0
-1147 -2717 0
-1148 -2718 0
-1149 -2719 0
-1150 -2720 0
-1146 -2761 0
-1147 -2762 0
-1148 -2763 0
-1149 -2764 0
-1150 -2765 0
-1146 -2861 0
-1147 -2862 0
-1148 -2863 0
-1149 -2864 0
-1150 -2865 0
-1146 -3231 0
-1147 -3232 0
-1148 -3233 0
-1149 -3234 0
-1150 -3235 0
-1146 -3596 0
-1147 -3597 0
-1148 -3598 0
-1149 -3599 0
-1150 -3600 0
-1146 -3871 0
-1147 -3872 0
-1148 -3873 0
-1149 -3874 0
-1150 -3875 0
-1146 -4006 0
-1147 -4007 0
-1148 -4008 0
-1149 -4009 0
-1150 -4010 0
-1146 -4221 0
-1147 -4222 0
-1148 -4223 0
-1149 -4224 0
-1150 -4225 0
-1146 -4301 0
-1147 -4302 0
-1148 -4303 0
-1149 -4304 0
-1150 -4305 0
-1146 -4351 0
-1147 -4352 0
-1148 -4353 0
-1149 -4354 0
-1150 -4355 0
-1151 -1321 0
-1152 -1322 0
-1153 -1323 0
-1154 -1324 0
-1155 -1325 0
-1151 -1456 0
-1152 -1457 0
-1153 -1458 0
-1154 -1459 0
-1155 -1460 0
-1151 -1756 0
-1152 -1757 0
-1153 -1758 0
-1154 -1759 0
-1155 -1760 0
-1156 -1336 0
-1157 -1337 0
-1158 -1338 0
-1159 -1339 0
-1160 -1340 0
-1156 -1441 0
-1157 -1442 0
-1158 -1443 0
-1159 -1444 0
-1160 -1445 0
-1156 -1746 0
-1157 -1747 0
-1158 -1748 0
-1159 -1749 0
-1160 -1750 0
-1156 -2721 0
-1157 -2722 0
-1158 -2723 0
-1159 -2724 0
-1160 -2725 0
-1156 -2766 0
-1157 -2767 0
-1158 -2768 0
-1159 -2769 0
-1160 -2770 0
-1156 -2866 0
-1157 -2867 0
-1158 -2868 0
-1159 -2869 0
-1160 -2870 0
-1156 -3001 0
-1157 -3002 0
-1158 -3003 0
-1159 -3004 0
-1160 -3005 0
-1156 -3236 0
-1157 -3237 0
-1158 -3238 0
-1159 -3239 0
-1160 -3240 0
-1156 -3601 0
-1157 -3602 0
-1158 -3603 0
-1159 -3604 0
-1160 -3605 0
-1156 -3876 0
-1157 -3877 0
-1158 -3878 0
-1159 -3879 0
-1160 -3880 0
-1156 -4011 0
-1157 -4012 0
-1158 -4013 0
-1159 -4014 0
-1160 -4015 0
-1156 -4306 0
-1157 -4307 0
-1158 -4308 0
-1159 -4309 0
-1160 -4310 0
-1161 -1291 0
-1162 -1292 0
-1163 -1293 0
-1164 -1294 0
-1165 -1295 0
-1161 -1326 0
-1162 -1327 0
-1163 -1328 0
-1164 -1329 0
-1165 -1330 0
-1161 -1801 0
-1162 -1802 0
-1163 -1803 0
-1164 -1804 0
-1165 -1805 0
-1166 -1346 0
-1167 -1347 0
-1168 -1348 0
-1169 -1349 0
-1170 -1350 0
-1166 -1451 0
-1167 -1452 0
-1168 -1453 0
-1169 -1454 0
-1170 -1455 0
-1166 -1686 0
-1167 -1687 0
-1168 -1688 0
-1169 -1689 0
-1170 -1690 0
-1166 -1756 0
-1167 -1757 0
-1168 -1758 0
-1169 -1759 0
-1170 -1760 0
-1166 -1816 0
-1167 -1817 0
-1168 -1818 0
-1169 -1819 0
-1170 -1820 0
-1166 -2641 0
-1167 -2642 0
-1168 -2643 0
-1169 -2644 0
-1170 -2645 0
-1166 -2726 0
-1167 -2727 0
-1168 -2728 0
-1169 -2729 0
-1170 -2730 0
-1166 -2776 0
-1167 -2777 0
-1168 -2778 0
-1169 -2779 0
-1170 -2780 0
-1166 -2876 0
-1167 -2877 0
-1168 -2878 0
-1169 -2879 0
-1170 -2880 0
-1166 -3016 0
-1167 -3017 0
-1168 -3018 0
-1169 -3019 0
-1170 -3020 0
-1166 -3241 0
-1167 -3242 0
-1168 -3243 0
-1169 -3244 0
-1170 -3245 0
-1166 -3611 0
-1167 -3612 0
-1168 -3613 0
-1169 -3614 0
-1170 -3615 0
-1166 -3841 0
-1167 -3842 0
-1168 -3843 0
-1169 -3844 0
-1170 -3845 0
-1166 -3886 0
-1167 -3887 0
-1168 -3888 0
-1169 -3889 0
-1170 -3890 0
-1166 -4361 0
-1167 -4362 0
-1168 -4363 0
-1169 -4364 0
-1170 -4365 0
-1171 -1331 0
-1172 -1332 0
-1173 -1333 0
-1174 -1334 0
-1175 -1335 0
-1171 -1466 0
-1172 -1467 0
-1173 -1468 0
-1174 -1469 0
-1175 -1470 0
-1171 -1681 0
-1172 -1682 0
-1173 -1683 0
-1174 -1684 0
-1175 -1685 0
-1171 -1761 0
-1172 -1762 0
-1173 -1763 0
-1174 -1764 0
-1175 -1765 0
-1171 -1811 0
-1172 -1812 0
-1173 -1813 0
-1174 -1814 0
-1175 -1815 0
-1176 -1296 0
-1177 -1297 0
-1178 -1298 0
-1179 -1299 0
-1180 -1300 0
-1176 -1351 0
-1177 -1352 0
-1178 -1353 0
-1179 -1354 0
-1180 -1355 0
-1176 -1826 0
-1177 -1827 0
-1178 -1828 0
-1179 -1829 0
-1180 -1830 0
-1176 -2736 0
-1177 -2737 0
-1178 -2738 0
-1179 -2739 0
-1180 -2740 0
-1176 -2781 0
-1177 -2782 0
-1178 -2783 0
-1179 -2784 0
-1180 -2785 0
-1176 -2801 0
-1177 -2802 0
-1178 -2803 0
-1179 -2804 0
-1180 -2805 0
-1176 -3251 0
-1177 -3252 0
-1178 -3253 0
-1179 -3254 0
-1180 -3255 0
-1176 -3536 0
-1177 -3537 0
-1178 -3538 0
-1179 -3539 0
-1180 -3540 0
-1176 -3891 0
-1177 -3892 0
-1178 -3893 0
-1179 -3894 0
-1180 -3895 0
-1176 -4026 0
-1177 -4027 0
-1178 -4028 0
-1179 -4029 0
-1180 -4030 0
-1176 -4231 0
-1177 -4232 0
-1178 -4233 0
-1179 -4234 0
-1180 -4235 0
-1176 -4316 0
-1177 -4317 0
-1178 -4318 0
-1179 -4319 0
-1180 -4320 0
-1176 -4371 0
-1177 -4372 0
-1178 -4373 0
-1179 -4374 0
-1180 -4375 0
-1181 -1341 0
-1182 -1342 0
-1183 -1343 0
-1184 -1344 0
-1185 -1345 0
-1181 -1476 0
-1182 -1477 0
-1183 -1478 0
-1184 -1479 0
-1185 -1480 0
-1181 -1771 0
-1182 -1772 0
-1183 -1773 0
-1184 -1774 0
-1185 -1775 0
-1186 -1356 0
-1187 -1357 0
-1188 -1358 0
-1189 -1359 0
-1190 -1360 0
-1186 -1461 0
-1187 -1462 0
-1188 -1463 0
-1189 -1464 0
-1190 -1465 0
-1186 -1761 0
-1187 -1762 0
-1188 -1763 0
-1189 -1764 0
-1190 -1765 0
-1186 -2681 0
-1187 -2682 0
-1188 -2683 0
-1189 -2684 0
-1190 -2685 0
-1186 -2786 0
-1187 -2787 0
-1188 -2788 0
-1189 -2789 0
-1190 -2790 0
-1186 -2806 0
-1187 -2807 0
-1188 -2808 0
-1189 -2809 0
-1190 -2810 0
-1186 -3021 0
-1187 -3022 0
-1188 -3023 0
-1189 -3024 0
-1190 -3025 0
-1186 -3256 0
-1187 -3257 0
-1188 -3258 0
-1189 -3259 0
-1190 -3260 0
-1186 -3541 0
-1187 -3542 0
-1188 -3543 0
-1189 -3544 0
-1190 -3545 0
-1186 -3896 0
-1187 -3897 0
-1188 -3898 0
-1189 -3899 0
-1190 -3900 0
-1186 -3971 0
-1187 -3972 0
-1188 -3973 0
-1189 -3974 0
-1190 -3975 0
-1186 -4321 0
-1187 -4322 0
-1188 -4323 0
-1189 -4324 0
-1190 -4325 0
-1191 -1301 0
-1192 -1302 0
-1193 -1303 0
-1194 -1304 0
-1195 -1305 0
-1191 -1346 0
-1192 -1347 0
-1193 -1348 0
-1194 -1349 0
-1195 -1350 0
-1191 -1821 0
-1192 -1822 0
-1193 -1823 0
-1194 -1824 0
-1195 -1825 0
-1196 -1366 0
-1197 -1367 0
-1198 -1368 0
-1199 -1369 0
-1200 -1370 0
-1196 -1471 0
-1197 -1472 0
-1198 -1473 0
-1199 -1474 0
-1200 -1475 0
-1196 -1696 0
-1197 -1697 0
-1198 -1698 0
-1199 -1699 0
-1200 -1700 0
-1196 -1771 0
-1197 -1772 0
-1198 -1773 0
-1199 -1774 0
-1200 -1775 0
-1196 -1836 0
-1197 -1837 0
-1198 -1838 0
-1199 -1839 0
-1200 -1840 0
-1196 -2621 0
-1197 -2622 0
-1198 -2623 0
-1199 -2624 0
-1200 -2625 0
-1196 -2686 0
-1197 -2687 0
-1198 -2688 0
-1199 -2689 0
-1200 -2690 0
-1196 -2796 0
-1197 -2797 0
-1198 -2798 0
-1199 -2799 0
-1200 -2800 0
-1196 -2816 0
-1197 -2817 0
-1198 -2818 0
-1199 -2819 0
-1200 -2820 0
-1196 -3036 0
-1197 -3037 0
-1198 -3038 0
-1199 -3039 0
-1200 -3040 0
-1196 -3261 0
-1197 -3262 0
-1198 -3263 0
-1199 -3264 0
-1200 -3265 0
-1196 -3551 0
-1197 -3552 0
-1198 -3553 0
-1199 -3554 0
-1200 -3555 0
-1196 -3821 0
-1197 -3822 0
-1198 -3823 0
-1199 -3824 0
-1200 -3825 0
-1196 -3906 0
-1197 -3907 0
-1198 -3908 0
-1199 -3909 0
-1200 -3910 0
-1196 -4381 0
-1197 -4382 0
-1198 -4383 0
-1199 -4384 0
-1200 -4385 0
-1201 -1351 0
-1202 -1352 0
-1203 -1353 0
-1204 -1354 0
-1205 -1355 0
-1201 -1486 0
-1202 -1487 0
-1203 -1488 0
-1204 -1489 0
-1205 -1490 0
-1201 -1691 0
-1202 -1692 0
-1203 -1693 0
-1204 -1694 0
-1205 -1695 0
-1201 -1776 0
-1202 -1777 0
-1203 -1778 0
-1204 -1779 0
-1205 -1780 0
-1201 -1831 0
-1202 -1832 0
-1203 -1833 0
-1204 -1834 0
-1205 -1835 0
-1206 -1306 0
-1207 -1307 0
-1208 -1308 0
-1209 -1309 0
-1210 -1310 0
-1206 -1311 0
-1207 -1312 0
-1208 -1313 0
-1209 -1314 0
-1210 -1315 0
-1206 -1786 0
-1207 -1787 0
-1208 -1788 0
-1209 -1789 0
-1210 -1790 0
-1206 -2696 0
-1207 -2697 0
-1208 -2698 0
-1209 -2699 0
-1210 -2700 0
-1206 -2741 0
-1207 -2742 0
-1208 -2743 0
-1209 -2744 0
-1210 -2745 0
-1206 -2831 0
-1207 -2832 0
-1208 -2833 0
-1209 -2834 0
-1210 -2835 0
-1206 -3211 0
-1207 -3212 0
-1208 -3213 0
-1209 -3214 0
-1210 -3215 0
-1206 -3566 0
-1207 -3567 0
-1208 -3568 0
-1209 -3569 0
-1210 -3570 0
-1206 -3851 0
-1207 -3852 0
-1208 -3853 0
-1209 -3854 0
-1210 -3855 0
-1206 -3986 0
-1207 -3987 0
-1208 -3988 0
-1209 -3989 0
-1210 -3990 0
-1206 -4211 0
-1207 -4212 0
-1208 -4213 0
-1209 -4214 0
-1210 -4215 0
-1206 -4286 0
-1207 -4287 0
-1208 -4288 0
-1209 -4289 0
-1210 -4290 0
-1206 -4331 0
-1207 -4332 0
-1208 -4333 0
-1209 -4334 0
-1210 -4335 0
-1211 -1361 0
-1212 -1362 0
-1213 -1363 0
-1214 -1364 0
-1215 -1365 0
-1211 -1436 0
-1212 -1437 0
-1213 -1438 0
-1214 -1439 0
-1215 -1440 0
-1211 -1741 0
-1212 -1742 0
-1213 -1743 0
-1214 -1744 0
-1215 -1745 0
-1216 -2381 0
-1217 -2382 0
-1218 -2383 0
-1219 -2384 0
-1220 -2385 0
-1216 -4386 0
-1217 -4387 0
-1218 -4388 0
-1219 -4389 0
-1220 -4390 0
-1221 -2391 0
-1222 -2392 0
-1223 -2393 0
-1224 -2394 0
-1225 -2395 0
-1226 -2401 0
-1227 -2402 0
-1228 -2403 0
-1229 -2404 0
-1230 -2405 0
-1231 -1286 0
-1232 -1287 0
-1233 -1288 0
-1234 -1289 0
-1235 -1290 0
-1231 -1716 0
-1232 -1717 0
-1233 -1718 0
-1234 -1719 0
-1235 -1720 0
-1231 -1781 0
-1232 -1782 0
-1233 -1783 0
-1234 -1784 0
-1235 -1785 0
-1236 -1281 0
-1237 -1282 0
-1238 -1283 0
-1239 -1284 0
-1240 -1285 0
-1236 -1751 0
-1237 -1752 0
-1238 -1753 0
-1239 -1754 0
-1240 -1755 0
-1241 -1501 0
-1242 -1502 0
-1243 -1503 0
-1244 -1504 0
-1245 -1505 0
-1241 -1676 0
-1242 -1677 0
-1243 -1678 0
-1244 -1679 0
-1245 -1680 0
-1241 -1756 0
-1242 -1757 0
-1243 -1758 0
-1244 -1759 0
-1245 -1760 0
-1241 -4386 0
-1242 -4387 0
-1243 -4388 0
-1244 -4389 0
-1245 -4390 0
-1246 -1496 0
-1247 -1497 0
-1248 -1498 0
-1249 -1499 0
-1250 -1500 0
-1246 -1681 0
-1247 -1682 0
-1248 -1683 0
-1249 -1684 0
-1250 -1685 0
-1246 -1746 0
-1247 -1747 0
-1248 -1748 0
-1249 -1749 0
-1250 -1750 0
-1251 -1296 0
-1252 -1297 0
-1253 -1298 0
-1254 -1299 0
-1255 -1300 0
-1251 -1706 0
-1252 -1707 0
-1253 -1708 0
-1254 -1709 0
-1255 -1710 0
-1251 -1846 0
-1252 -1847 0
-1253 -1848 0
-1254 -1849 0
-1255 -1850 0
-1256 -1291 0
-1257 -1292 0
-1258 -1293 0
-1259 -1294 0
-1260 -1295 0
-1256 -1711 0
-1257 -1712 0
-1258 -1713 0
-1259 -1714 0
-1260 -1715 0
-1256 -1851 0
-1257 -1852 0
-1258 -1853 0
-1259 -1854 0
-1260 -1855 0
-1261 -1511 0
-1262 -1512 0
-1263 -1513 0
-1264 -1514 0
-1265 -1515 0
-1261 -1686 0
-1262 -1687 0
-1263 -1688 0
-1264 -1689 0
-1265 -1690 0
-1261 -1771 0
-1262 -1772 0
-1263 -1773 0
-1264 -1774 0
-1265 -1775 0
-1266 -1506 0
-1267 -1507 0
-1268 -1508 0
-1269 -1509 0
-1270 -1510 0
-1266 -1691 0
-1267 -1692 0
-1268 -1693 0
-1269 -1694 0
-1270 -1695 0
-1266 -1761 0
-1267 -1762 0
-1268 -1763 0
-1269 -1764 0
-1270 -1765 0
-1271 -1306 0
-1272 -1307 0
-1273 -1308 0
-1274 -1309 0
-1275 -1310 0
-1271 -1766 0
-1272 -1767 0
-1273 -1768 0
-1274 -1769 0
-1275 -1770 0
-1276 -1301 0
-1277 -1302 0
-1278 -1303 0
-1279 -1304 0
-1280 -1305 0
-1276 -1701 0
-1277 -1702 0
-1278 -1703 0
-1279 -1704 0
-1280 -1705 0
-1276 -1736 0
-1277 -1737 0
-1278 -1738 0
-1279 -1739 0
-1280 -1740 0
-1281 -1641 0
-1282 -1642 0
-1283 -1643 0
-1284 -1644 0
-1285 -1645 0
-1286 -1646 0
-1287 -1647 0
-1288 -1648 0
-1289 -1649 0
-1290 -1650 0
-1286 -3711 0
-1287 -3712 0
-1288 -3713 0
-1289 -3714 0
-1290 -3715 0
-1291 -1651 0
-1292 -1652 0
-1293 -1653 0
-1294 -1654 0
-1295 -1655 0
-1296 -1656 0
-1297 -1657 0
-1298 -1658 0
-1299 -1659 0
-1300 -1660 0
-1296 -3741 0
-1297 -3742 0
-1298 -3743 0
-1299 -3744 0
-1300 -3745 0
-1301 -1661 0
-1302 -1662 0
-1303 -1663 0
-1304 -1664 0
-1305 -1665 0
-1306 -1666 0
-1307 -1667 0
-1308 -1668 0
-1309 -1669 0
-1310 -1670 0
-1306 -3681 0
-1307 -3682 0
-1308 -3683 0
-1309 -3684 0
-1310 -3685 0
-1311 -1486 0
-1312 -1487 0
-1313 -1488 0
-1314 -1489 0
-1315 -1490 0
-1311 -1526 0
-1312 -1527 0
-1313 -1528 0
-1314 -1529 0
-1315 -1530 0
-1311 -1721 0
-1312 -1722 0
-1313 -1723 0
-1314 -1724 0
-1315 -1725 0
-1311 -3681 0
-1312 -3682 0
-1313 -3683 0
-1314 -3684 0
-1315 -3685 0
-1316 -1431 0
-1317 -1432 0
-1318 -1433 0
-1319 -1434 0
-1320 -1435 0
-1316 -1441 0
-1317 -1442 0
-1318 -1443 0
-1319 -1444 0
-1320 -1445 0
-1316 -1676 0
-1317 -1677 0
-1318 -1678 0
-1319 -1679 0
-1320 -1680 0
-1321 -1436 0
-1322 -1437 0
-1323 -1438 0
-1324 -1439 0
-1325 -1440 0
-1321 -1446 0
-1322 -1447 0
-1323 -1448 0
-1324 -1449 0
-1325 -1450 0
-1321 -1671 0
-1322 -1672 0
-1323 -1673 0
-1324 -1674 0
-1325 -1675 0
-1321 -3691 0
-1322 -3692 0
-1323 -3693 0
-1324 -3694 0
-1325 -3695 0
-1326 -1451 0
-1327 -1452 0
-1328 -1453 0
-1329 -1454 0
-1330 -1455 0
-1326 -1521 0
-1327 -1522 0
-1328 -1523 0
-1329 -1524 0
-1330 -1525 0
-1326 -1721 0
-1327 -1722 0
-1328 -1723 0
-1329 -1724 0
-1330 -1725 0
-1326 -3701 0
-1327 -3702 0
-1328 -3703 0
-1329 -3704 0
-1330 -3705 0
-1331 -1446 0
-1332 -1447 0
-1333 -1448 0
-1334 -1449 0
-1335 -1450 0
-1331 -1536 0
-1332 -1537 0
-1333 -1538 0
-1334 -1539 0
-1335 -1540 0
-1331 -1726 0
-1332 -1727 0
-1333 -1728 0
-1334 -1729 0
-1335 -1730 0
-1331 -3711 0
-1332 -3712 0
-1333 -3713 0
-1334 -3714 0
-1335 -3715 0
-1336 -1451 0
-1337 -1452 0
-1338 -1453 0
-1339 -1454 0
-1340 -1455 0
-1336 -1461 0
-1337 -1462 0
-1338 -1463 0
-1339 -1464 0
-1340 -1465 0
-1336 -1686 0
-1337 -1687 0
-1338 -1688 0
-1339 -1689 0
-1340 -1690 0
-1341 -1456 0
-1342 -1457 0
-1343 -1458 0
-1344 -1459 0
-1345 -1460 0
-1341 -1466 0
-1342 -1467 0
-1343 -1468 0
-1344 -1469 0
-1345 -1470 0
-1341 -1681 0
-1342 -1682 0
-1343 -1683 0
-1344 -1684 0
-1345 -1685 0
-1341 -3721 0
-1342 -3722 0
-1343 -3723 0
-1344 -3724 0
-1345 -3725 0
-1346 -1471 0
-1347 -1472 0
-1348 -1473 0
-1349 -1474 0
-1350 -1475 0
-1346 -1531 0
-1347 -1532 0
-1348 -1533 0
-1349 -1534 0
-1350 -1535 0
-1346 -1726 0
-1347 -1727 0
-1348 -1728 0
-1349 -1729 0
-1350 -1730 0
-1346 -3731 0
-1347 -3732 0
-1348 -3733 0
-1349 -3734 0
-1350 -3735 0
-1351 -1466 0
-1352 -1467 0
-1353 -1468 0
-1354 -1469 0
-1355 -1470 0
-1351 -1546 0
-1352 -1547 0
-1353 -1548 0
-1354 -1549 0
-1355 -1550 0
-1351 -1731 0
-1352 -1732 0
-1353 -1733 0
-1354 -1734 0
-1355 -1735 0
-1351 -3741 0
-1352 -3742 0
-1353 -3743 0
-1354 -3744 0
-1355 -3745 0
-1356 -1471 0
-1357 -1472 0
-1358 -1473 0
-1359 -1474 0
-1360 -1475 0
-1356 -1481 0
-1357 -1482 0
-1358 -1483 0
-1359 -1484 0
-1360 -1485 0
-1356 -1696 0
-1357 -1697 0
-1358 -1698 0
-1359 -1699 0
-1360 -1700 0
-1361 -1476 0
-1362 -1477 0
-1363 -1478 0
-1364 -1479 0
-1365 -1480 0
-1361 -1486 0
-1362 -1487 0
-1363 -1488 0
-1364 -1489 0
-1365 -1490 0
-1361 -1691 0
-1362 -1692 0
-1363 -1693 0
-1364 -1694 0
-1365 -1695 0
-1361 -3751 0
-1362 -3752 0
-1363 -3753 0
-1364 -3754 0
-1365 -3755 0
-1366 -1431 0
-1367 -1432 0
-1368 -1433 0
-1369 -1434 0
-1370 -1435 0
-1366 -1541 0
-1367 -1542 0
-1368 -1543 0
-1369 -1544 0
-1370 -1545 0
-1366 -1731 0
-1367 -1732 0
-1368 -1733 0
-1369 -1734 0
-1370 -1735 0
-1366 -3671 0
-1367 -3672 0
-1368 -3673 0
-1369 -3674 0
-1370 -3675 0
-1371 -1426 0
-1372 -1427 0
-1373 -1428 0
-1374 -1429 0
-1375 -1430 0
-1371 -1521 0
-1372 -1522 0
-1373 -1523 0
-1374 -1524 0
-1375 -1525 0
-1376 -1381 0
-1377 -1382 0
-1378 -1383 0
-1379 -1384 0
-1380 -1385 0
-1376 -1701 0
-1377 -1702 0
-1378 -1703 0
-1379 -1704 0
-1380 -1705 0
-1381 -1706 0
-1382 -1707 0
-1383 -1708 0
-1384 -1709 0
-1385 -1710 0
-1386 -1391 0
-1387 -1392 0
-1388 -1393 0
-1389 -1394 0
-1390 -1395 0
-1386 -1526 0
-1387 -1527 0
-1388 -1528 0
-1389 -1529 0
-1390 -1530 0
-1391 -1531 0
-1392 -1532 0
-1393 -1533 0
-1394 -1534 0
-1395 -1535 0
-1396 -1401 0
-1397 -1402 0
-1398 -1403 0
-1399 -1404 0
-1400 -1405 0
-1396 -1851 0
-1397 -1852 0
-1398 -1853 0
-1399 -1854 0
-1400 -1855 0
-1401 -1846 0
-1402 -1847 0
-1403 -1848 0
-1404 -1849 0
-1405 -1850 0
-1406 -1411 0
-1407 -1412 0
-1408 -1413 0
-1409 -1414 0
-1410 -1415 0
-1406 -1536 0
-1407 -1537 0
-1408 -1538 0
-1409 -1539 0
-1410 -1540 0
-1411 -1541 0
-1412 -1542 0
-1413 -1543 0
-1414 -1544 0
-1415 -1545 0
-1416 -1421 0
-1417 -1422 0
-1418 -1423 0
-1419 -1424 0
-1420 -1425 0
-1416 -1711 0
-1417 -1712 0
-1418 -1713 0
-1419 -1714 0
-1420 -1715 0
-1421 -1716 0
-1422 -1717 0
-1423 -1718 0
-1424 -1719 0
-1425 -1720 0
-1426 -1546 0
-1427 -1547 0
-1428 -1548 0
-1429 -1549 0
-1430 -1550 0
-1431 -1561 0
-1432 -1562 0
-1433 -1563 0
-1434 -1564 0
-1435 -1565 0
-1431 -1776 0
-1432 -1777 0
-1433 -1778 0
-1434 -1779 0
-1435 -1780 0
-1431 -1856 0
-1432 -1857 0
-1433 -1858 0
-1434 -1859 0
-1435 -1860 0
-1431 -3701 0
-1432 -3702 0
-1433 -3703 0
-1434 -3704 0
-1435 -3705 0
-1436 -1551 0
-1437 -1552 0
-1438 -1553 0
-1439 -1554 0
-1440 -1555 0
-1436 -1736 0
-1437 -1737 0
-1438 -1738 0
-1439 -1739 0
-1440 -1740 0
-1441 -1581 0
-1442 -1582 0
-1443 -1583 0
-1444 -1584 0
-1445 -1585 0
-1446 -1571 0
-1447 -1572 0
-1448 -1573 0
-1449 -1574 0
-1450 -1575 0
-1446 -1756 0
-1447 -1757 0
-1448 -1758 0
-1449 -1759 0
-1450 -1760 0
-1446 -1861 0
-1447 -1862 0
-1448 -1863 0
-1449 -1864 0
-1450 -1865 0
-1446 -3721 0
-1447 -3722 0
-1448 -3723 0
-1449 -3724 0
-1450 -3725 0
-1451 -1591 0
-1452 -1592 0
-1453 -1593 0
-1454 -1594 0
-1455 -1595 0
-1451 -1746 0
-1452 -1747 0
-1453 -1748 0
-1454 -1749 0
-1455 -1750 0
-1451 -1861 0
-1452 -1862 0
-1453 -1863 0
-1454 -1864 0
-1455 -1865 0
-1451 -3731 0
-1452 -3732 0
-1453 -3733 0
-1454 -3734 0
-1455 -3735 0
-1456 -1581 0
-1457 -1582 0
-1458 -1583 0
-1459 -1584 0
-1460 -1585 0
-1456 -1751 0
-1457 -1752 0
-1458 -1753 0
-1459 -1754 0
-1460 -1755 0
-1461 -1611 0
-1462 -1612 0
-1463 -1613 0
-1464 -1614 0
-1465 -1615 0
-1461 -1766 0
-1462 -1767 0
-1463 -1768 0
-1464 -1769 0
-1465 -1770 0
-1466 -1601 0
-1467 -1602 0
-1468 -1603 0
-1469 -1604 0
-1470 -1605 0
-1466 -1771 0
-1467 -1772 0
-1468 -1773 0
-1469 -1774 0
-1470 -1775 0
-1466 -1866 0
-1467 -1867 0
-1468 -1868 0
-1469 -1869 0
-1470 -1870 0
-1466 -3751 0
-1467 -3752 0
-1468 -3753 0
-1469 -3754 0
-1470 -3755 0
-1471 -1621 0
-1472 -1622 0
-1473 -1623 0
-1474 -1624 0
-1475 -1625 0
-1471 -1761 0
-1472 -1762 0
-1473 -1763 0
-1474 -1764 0
-1475 -1765 0
-1471 -1866 0
-1472 -1867 0
-1473 -1868 0
-1474 -1869 0
-1475 -1870 0
-1471 -3671 0
-1472 -3672 0
-1473 -3673 0
-1474 -3674 0
-1475 -3675 0
-1476 -1611 0
-1477 -1612 0
-1478 -1613 0
-1479 -1614 0
-1480 -1615 0
-1481 -1551 0
-1482 -1552 0
-1483 -1553 0
-1484 -1554 0
-1485 -1555 0
-1481 -1781 0
-1482 -1782 0
-1483 -1783 0
-1484 -1784 0
-1485 -1785 0
-1486 -1631 0
-1487 -1632 0
-1488 -1633 0
-1489 -1634 0
-1490 -1635 0
-1486 -1741 0
-1487 -1742 0
-1488 -1743 0
-1489 -1744 0
-1490 -1745 0
-1486 -1856 0
-1487 -1857 0
-1488 -1858 0
-1489 -1859 0
-1490 -1860 0
-1486 -3691 0
-1487 -3692 0
-1488 -3693 0
-1489 -3694 0
-1490 -3695 0
-1491 -1526 0
-1492 -1527 0
-1493 -1528 0
-1494 -1529 0
-1495 -1530 0
-1496 -1521 0
-1497 -1522 0
-1498 -1523 0
-1499 -1524 0
-1500 -1525 0
-1501 -1536 0
-1502 -1537 0
-1503 -1538 0
-1504 -1539 0
-1505 -1540 0
-1506 -1531 0
-1507 -1532 0
-1508 -1533 0
-1509 -1534 0
-1510 -1535 0
-1511 -1546 0
-1512 -1547 0
-1513 -1548 0
-1514 -1549 0
-1515 -1550 0
-1516 -1541 0
-1517 -1542 0
-1518 -1543 0
-1519 -1544 0
-1520 -1545 0
-1521 -1641 0
-1522 -1642 0
-1523 -1643 0
-1524 -1644 0
-1525 -1645 0
-1526 -1646 0
-1527 -1647 0
-1528 -1648 0
-1529 -1649 0
-1530 -1650 0
-1526 -3066 0
-1527 -3067 0
-1528 -3068 0
-1529 -3069 0
-1530 -3070 0
-1531 -1651 0
-1532 -1652 0
-1533 -1653 0
-1534 -1654 0
-1535 -1655 0
-1536 -1656 0
-1537 -1657 0
-1538 -1658 0
-1539 -1659 0
-1540 -1660 0
-1536 -3086 0
-1537 -3087 0
-1538 -3088 0
-1539 -3089 0
-1540 -3090 0
-1541 -1661 0
-1542 -1662 0
-1543 -1663 0
-1544 -1664 0
-1545 -1665 0
-1546 -1666 0
-1547 -1667 0
-1548 -1668 0
-1549 -1669 0
-1550 -1670 0
-1546 -3046 0
-1547 -3047 0
-1548 -3048 0
-1549 -3049 0
-1550 -3050 0
-1556 -1636 0
-1557 -1637 0
-1558 -1638 0
-1559 -1639 0
-1560 -1640 0
-1556 -1791 0
-1557 -1792 0
-1558 -1793 0
-1559 -1794 0
-1560 -1795 0
-1556 -1841 0
-1557 -1842 0
-1558 -1843 0
-1559 -1844 0
-1560 -1845 0
-1556 -1856 0
-1557 -1857 0
-1558 -1858 0
-1559 -1859 0
-1560 -1860 0
-1561 -1571 0
-1562 -1572 0
-1563 -1573 0
-1564 -1574 0
-1565 -1575 0
-1561 -1786 0
-1562 -1787 0
-1563 -1788 0
-1564 -1789 0
-1565 -1790 0
-1561 -1796 0
-1562 -1797 0
-1563 -1798 0
-1564 -1799 0
-1565 -1800 0
-1571 -1791 0
-1572 -1792 0
-1573 -1793 0
-1574 -1794 0
-1575 -1795 0
-1571 -1801 0
-1572 -1802 0
-1573 -1803 0
-1574 -1804 0
-1575 -1805 0
-1576 -1586 0
-1577 -1587 0
-1578 -1588 0
-1579 -1589 0
-1580 -1590 0
-1576 -1796 0
-1577 -1797 0
-1578 -1798 0
-1579 -1799 0
-1580 -1800 0
-1576 -1806 0
-1577 -1807 0
-1578 -1808 0
-1579 -1809 0
-1580 -1810 0
-1576 -1861 0
-1577 -1862 0
-1578 -1863 0
-1579 -1864 0
-1580 -1865 0
-1586 -1801 0
-1587 -1802 0
-1588 -1803 0
-1589 -1804 0
-1590 -1805 0
-1586 -1811 0
-1587 -1812 0
-1588 -1813 0
-1589 -1814 0
-1590 -1815 0
-1586 -1861 0
-1587 -1862 0
-1588 -1863 0
-1589 -1864 0
-1590 -1865 0
-1591 -1601 0
-1592 -1602 0
-1593 -1603 0
-1594 -1604 0
-1595 -1605 0
-1591 -1806 0
-1592 -1807 0
-1593 -1808 0
-1594 -1809 0
-1595 -1810 0
-1591 -1816 0
-1592 -1817 0
-1593 -1818 0
-1594 -1819 0
-1595 -1820 0
-1601 -1811 0
-1602 -1812 0
-1603 -1813 0
-1604 -1814 0
-1605 -1815 0
-1601 -1821 0
-1602 -1822 0
-1603 -1823 0
-1604 -1824 0
-1605 -1825 0
-1606 -1616 0
-1607 -1617 0
-1608 -1618 0
-1609 -1619 0
-1610 -1620 0
-1606 -1816 0
-1607 -1817 0
-1608 -1818 0
-1609 -1819 0
-1610 -1820 0
-1606 -1826 0
-1607 -1827 0
-1608 -1828 0
-1609 -1829 0
-1610 -1830 0
-1606 -1866 0
-1607 -1867 0
-1608 -1868 0
-1609 -1869 0
-1610 -1870 0
-1616 -1821 0
-1617 -1822 0
-1618 -1823 0
-1619 -1824 0
-1620 -1825 0
-1616 -1831 0
-1617 -1832 0
-1618 -1833 0
-1619 -1834 0
-1620 -1835 0
-1616 -1866 0
-1617 -1867 0
-1618 -1868 0
-1619 -1869 0
-1620 -1870 0
-1621 -1631 0
-1622 -1632 0
-1623 -1633 0
-1624 -1634 0
-1625 -1635 0
-1621 -1826 0
-1622 -1827 0
-1623 -1828 0
-1624 -1829 0
-1625 -1830 0
-1621 -1836 0
-1622 -1837 0
-1623 -1838 0
-1624 -1839 0
-1625 -1840 0
-1631 -1831 0
-1632 -1832 0
-1633 -1833 0
-1634 -1834 0
-1635 -1835 0
-1631 -1841 0
-1632 -1842 0
-1633 -1843 0
-1634 -1844 0
-1635 -1845 0
-1636 -1786 0
-1637 -1787 0
-1638 -1788 0
-1639 -1789 0
-1640 -1790 0
-1636 -1836 0
-1637 -1837 0
-1638 -1838 0
-1639 -1839 0
-1640 -1840 0
-1636 -1856 0
-1637 -1857 0
-1638 -1858 0
-1639 -1859 0
-1640 -1860 0
-1671 -1701 0
-1672 -1702 0
-1673 -1703 0
-1674 -1704 0
-1675 -1705 0
-1676 -1706 0
-1677 -1707 0
-1678 -1708 0
-1679 -1709 0
-1680 -1710 0
-1676 -3701 0
-1677 -3702 0
-1678 -3703 0
-1679 -3704 0
-1680 -3705 0
-1681 -1851 0
-1682 -1852 0
-1683 -1853 0
-1684 -1854 0
-1685 -1855 0
-1686 -1846 0
-1687 -1847 0
-1688 -1848 0
-1689 -1849 0
-1690 -1850 0
-1686 -3731 0
-1687 -3732 0
-1688 -3733 0
-1689 -3734 0
-1690 -3735 0
-1691 -1711 0
-1692 -1712 0
-1693 -1713 0
-1694 -1714 0
-1695 -1715 0
-1696 -1716 0
-1697 -1717 0
-1698 -1718 0
-1699 -1719 0
-1700 -1720 0
-1696 -3671 0
-1697 -3672 0
-1698 -3673 0
-1699 -3674 0
-1700 -3675 0
-1701 -1776 0
-1702 -1777 0
-1703 -1778 0
-1704 -1779 0
-1705 -1780 0
-1706 -1756 0
-1707 -1757 0
-1708 -1758 0
-1709 -1759 0
-1710 -1760 0
-1711 -1761 0
-1712 -1762 0
-1713 -1763 0
-1714 -1764 0
-1715 -1765 0
-1716 -1741 0
-1717 -1742 0
-1718 -1743 0
-1719 -1744 0
-1720 -1745 0
-1721 -2151 0
-1722 -2152 0
-1723 -2153 0
-1724 -2154 0
-1725 -2155 0
-1726 -2161 0
-1727 -2162 0
-1728 -2163 0
-1729 -2164 0
-1730 -2165 0
-1731 -2171 0
-1732 -2172 0
-1733 -2173 0
-1734 -2174 0
-1735 -2175 0
-1731 -3271 0
-1732 -3272 0
-1733 -3273 0
-1734 -3274 0
-1735 -3275 0
-1736 -3691 0
-1737 -3692 0
-1738 -3693 0
-1739 -3694 0
-1740 -3695 0
-1741 -1856 0
-1742 -1857 0
-1743 -1858 0
-1744 -1859 0
-1745 -1860 0
-1741 -3701 0
-1742 -3702 0
-1743 -3703 0
-1744 -3704 0
-1745 -3705 0
-1746 -1861 0
-1747 -1862 0
-1748 -1863 0
-1749 -1864 0
-1750 -1865 0
-1751 -3721 0
-1752 -3722 0
-1753 -3723 0
-1754 -3724 0
-1755 -3725 0
-1756 -1846 0
-1757 -1847 0
-1758 -1848 0
-1759 -1849 0
-1760 -1850 0
-1756 -1861 0
-1757 -1862 0
-1758 -1863 0
-1759 -1864 0
-1760 -1865 0
-1756 -3731 0
-1757 -3732 0
-1758 -3733 0
-1759 -3734 0
-1760 -3735 0
-1761 -1851 0
-1762 -1852 0
-1763 -1853 0
-1764 -1854 0
-1765 -1855 0
-1761 -1866 0
-1762 -1867 0
-1763 -1868 0
-1764 -1869 0
-1765 -1870 0
-1771 -1866 0
-1772 -1867 0
-1773 -1868 0
-1774 -1869 0
-1775 -1870 0
-1771 -3671 0
-1772 -3672 0
-1773 -3673 0
-1774 -3674 0
-1775 -3675 0
-1776 -1856 0
-1777 -1857 0
-1778 -1858 0
-1779 -1859 0
-1780 -1860 0
-1786 -2406 0
-1787 -2407 0
-1788 -2408 0
-1789 -2409 0
-1790 -2410 0
-1786 -3681 0
-1787 -3682 0
-1788 -3683 0
-1789 -3684 0
-1790 -3685 0
-1791 -2411 0
-1792 -2412 0
-1793 -2413 0
-1794 -2414 0
-1795 -2415 0
-1796 -2416 0
-1797 -2417 0
-1798 -2418 0
-1799 -2419 0
-1800 -2420 0
-1796 -3701 0
-1797 -3702 0
-1798 -3703 0
-1799 -3704 0
-1800 -3705 0
-1801 -2421 0
-1802 -2422 0
-1803 -2423 0
-1804 -2424 0
-1805 -2425 0
-1806 -2426 0
-1807 -2427 0
-1808 -2428 0
-1809 -2429 0
-1810 -2430 0
-1806 -3711 0
-1807 -3712 0
-1808 -3713 0
-1809 -3714 0
-1810 -3715 0
-1811 -2431 0
-1812 -2432 0
-1813 -2433 0
-1814 -2434 0
-1815 -2435 0
-1816 -2436 0
-1817 -2437 0
-1818 -2438 0
-1819 -2439 0
-1820 -2440 0
-1816 -3731 0
-1817 -3732 0
-1818 -3733 0
-1819 -3734 0
-1820 -3735 0
-1821 -2441 0
-1822 -2442 0
-1823 -2443 0
-1824 -2444 0
-1825 -2445 0
-1826 -2446 0
-1827 -2447 0
-1828 -2448 0
-1829 -2449 0
-1830 -2450 0
-1826 -3741 0
-1827 -3742 0
-1828 -3743 0
-1829 -3744 0
-1830 -3745 0
-1831 -2451 0
-1832 -2452 0
-1833 -2453 0
-1834 -2454 0
-1835 -2455 0
-1836 -2456 0
-1837 -2457 0
-1838 -2458 0
-1839 -2459 0
-1840 -2460 0
-1836 -3671 0
-1837 -3672 0
-1838 -3673 0
-1839 -3674 0
-1840 -3675 0
-1841 -2461 0
-1842 -2462 0
-1843 -2463 0
-1844 -2464 0
-1845 -2465 0
-1851 -3441 0
-1852 -3442 0
-1853 -3443 0
-1854 -3444 0
-1855 -3445 0
-1851 -3521 0
-1852 -3522 0
-1853 -3523 0
-1854 -3524 0
-1855 -3525 0
-1851 -3766 0
-1852 -3767 0
-1853 -3768 0
-1854 -3769 0
-1855 -3770 0
-1851 -3806 0
-1852 -3807 0
-1853 -3808 0
-1854 -3809 0
-1855 -3810 0
-1871 -1946 0
-1872 -1947 0
-1873 -1948 0
-1874 -1949 0
-1875 -1950 0
-1871 -1981 0
-1872 -1982 0
-1873 -1983 0
-1874 -1984 0
-1875 -1985 0
-1871 -2026 0
-1872 -2027 0
-1873 -2028 0
-1874 -2029 0
-1875 -2030 0
-1871 -2051 0
-1872 -2052 0
-1873 -2053 0
-1874 -2054 0
-1875 -2055 0
-1871 -2111 0
-1872 -2112 0
-1873 -2113 0
-1874 -2114 0
-1875 -2115 0
-1871 -4666 0
-1872 -4667 0
-1873 -4668 0
-1874 -4669 0
-1875 -4670 0
-1876 -1956 0
-1877 -1957 0
-1878 -1958 0
-1879 -1959 0
-1880 -1960 0
-1876 -1966 0
-1877 -1967 0
-1878 -1968 0
-1879 -1969 0
-1880 -1970 0
-1876 -1986 0
-1877 -1987 0
-1878 -1988 0
-1879 -1989 0
-1880 -1990 0
-1876 -2056 0
-1877 -2057 0
-1878 -2058 0
-1879 -2059 0
-1880 -2060 0
-1876 -2131 0
-1877 -2132 0
-1878 -2133 0
-1879 -2134 0
-1880 -2135 0
-1876 -4626 0
-1877 -4627 0
-1878 -4628 0
-1879 -4629 0
-1880 -4630 0
-1881 -1961 0
-1882 -1962 0
-1883 -1963 0
-1884 -1964 0
-1885 -1965 0
-1881 -1971 0
-1882 -1972 0
-1883 -1973 0
-1884 -1974 0
-1885 -1975 0
-1881 -2021 0
-1882 -2022 0
-1883 -2023 0
-1884 -2024 0
-1885 -2025 0
-1881 -2046 0
-1882 -2047 0
-1883 -2048 0
-1884 -2049 0
-1885 -2050 0
-1881 -2081 0
-1882 -2082 0
-1883 -2083 0
-1884 -2084 0
-1885 -2085 0
-1881 -2136 0
-1882 -2137 0
-1883 -2138 0
-1884 -2139 0
-1885 -2140 0
-1886 -1931 0
-1887 -1932 0
-1888 -1933 0
-1889 -1934 0
-1890 -1935 0
-1886 -1936 0
-1887 -1937 0
-1888 -1938 0
-1889 -1939 0
-1890 -1940 0
-1886 -1966 0
-1887 -1967 0
-1888 -1968 0
-1889 -1969 0
-1890 -1970 0
-1886 -2001 0
-1887 -2002 0
-1888 -2003 0
-1889 -2004 0
-1890 -2005 0
-1886 -2036 0
-1887 -2037 0
-1888 -2038 0
-1889 -2039 0
-1890 -2040 0
-1886 -2066 0
-1887 -2067 0
-1888 -2068 0
-1889 -2069 0
-1890 -2070 0
-1886 -2096 0
-1887 -2097 0
-1888 -2098 0
-1889 -2099 0
-1890 -2100 0
-1886 -2141 0
-1887 -2142 0
-1888 -2143 0
-1889 -2144 0
-1890 -2145 0
-1886 -2146 0
-1887 -2147 0
-1888 -2148 0
-1889 -2149 0
-1890 -2150 0
-1886 -2151 0
-1887 -2152 0
-1888 -2153 0
-1889 -2154 0
-1890 -2155 0
-1886 -2176 0
-1887 -2177 0
-1888 -2178 0
-1889 -2179 0
-1890 -2180 0
-1886 -2181 0
-1887 -2182 0
-1888 -2183 0
-1889 -2184 0
-1890 -2185 0
-1886 -2236 0
-1887 -2237 0
-1888 -2238 0
-1889 -2239 0
-1890 -2240 0
-1886 -4636 0
-1887 -4637 0
-1888 -4638 0
-1889 -4639 0
-1890 -4640 0
-1891 -1936 0
-1892 -1937 0
-1893 -1938 0
-1894 -1939 0
-1895 -1940 0
-1891 -1941 0
-1892 -1942 0
-1893 -1943 0
-1894 -1944 0
-1895 -1945 0
-1891 -1976 0
-1892 -1977 0
-1893 -1978 0
-1894 -1979 0
-1895 -1980 0
-1891 -1986 0
-1892 -1987 0
-1893 -1988 0
-1894 -1989 0
-1895 -1990 0
-1891 -2011 0
-1892 -2012 0
-1893 -2013 0
-1894 -2014 0
-1895 -2015 0
-1891 -2091 0
-1892 -2092 0
-1893 -2093 0
-1894 -2094 0
-1895 -2095 0
-1891 -2106 0
-1892 -2107 0
-1893 -2108 0
-1894 -2109 0
-1895 -2110 0
-1891 -2151 0
-1892 -2152 0
-1893 -2153 0
-1894 -2154 0
-1895 -2155 0
-1891 -2156 0
-1892 -2157 0
-1893 -2158 0
-1894 -2159 0
-1895 -2160 0
-1891 -2186 0
-1892 -2187 0
-1893 -2188 0
-1894 -2189 0
-1895 -2190 0
-1891 -2191 0
-1892 -2192 0
-1893 -2193 0
-1894 -2194 0
-1895 -2195 0
-1891 -2241 0
-1892 -2242 0
-1893 -2243 0
-1894 -2244 0
-1895 -2245 0
-1891 -4646 0
-1892 -4647 0
-1893 -4648 0
-1894 -4649 0
-1895 -4650 0
-1896 -1916 0
-1897 -1917 0
-1898 -1918 0
-1899 -1919 0
-1900 -1920 0
-1896 -1941 0
-1897 -1942 0
-1898 -1943 0
-1899 -1944 0
-1900 -1945 0
-1896 -1951 0
-1897 -1952 0
-1898 -1953 0
-1899 -1954 0
-1900 -1955 0
-1896 -1996 0
-1897 -1997 0
-1898 -1998 0
-1899 -1999 0
-1900 -2000 0
-1896 -2021 0
-1897 -2022 0
-1898 -2023 0
-1899 -2024 0
-1900 -2025 0
-1896 -2071 0
-1897 -2072 0
-1898 -2073 0
-1899 -2074 0
-1900 -2075 0
-1896 -2101 0
-1897 -2102 0
-1898 -2103 0
-1899 -2104 0
-1900 -2105 0
-1896 -2116 0
-1897 -2117 0
-1898 -2118 0
-1899 -2119 0
-1900 -2120 0
-1896 -2156 0
-1897 -2157 0
-1898 -2158 0
-1899 -2159 0
-1900 -2160 0
-1896 -2161 0
-1897 -2162 0
-1898 -2163 0
-1899 -2164 0
-1900 -2165 0
-1896 -2196 0
-1897 -2197 0
-1898 -2198 0
-1899 -2199 0
-1900 -2200 0
-1896 -2201 0
-1897 -2202 0
-1898 -2203 0
-1899 -2204 0
-1900 -2205 0
-1896 -2246 0
-1897 -2247 0
-1898 -2248 0
-1899 -2249 0
-1900 -2250 0
-1896 -4656 0
-1897 -4657 0
-1898 -4658 0
-1899 -4659 0
-1900 -4660 0
-1901 -1916 0
-1902 -1917 0
-1903 -1918 0
-1904 -1919 0
-1905 -1920 0
-1901 -1921 0
-1902 -1922 0
-1903 -1923 0
-1904 -1924 0
-1905 -1925 0
-1901 -1961 0
-1902 -1962 0
-1903 -1963 0
-1904 -1964 0
-1905 -1965 0
-1901 -1981 0
-1902 -1982 0
-1903 -1983 0
-1904 -1984 0
-1905 -1985 0
-1901 -2006 0
-1902 -2007 0
-1903 -2008 0
-1904 -2009 0
-1905 -2010 0
-1901 -2031 0
-1902 -2032 0
-1903 -2033 0
-1904 -2034 0
-1905 -2035 0
-1901 -2076 0
-1902 -2077 0
-1903 -2078 0
-1904 -2079 0
-1905 -2080 0
-1901 -2081 0
-1902 -2082 0
-1903 -2083 0
-1904 -2084 0
-1905 -2085 0
-1901 -2111 0
-1902 -2112 0
-1903 -2113 0
-1904 -2114 0
-1905 -2115 0
-1901 -2126 0
-1902 -2127 0
-1903 -2128 0
-1904 -2129 0
-1905 -2130 0
-1901 -2161 0
-1902 -2162 0
-1903 -2163 0
-1904 -2164 0
-1905 -2165 0
-1901 -2166 0
-1902 -2167 0
-1903 -2168 0
-1904 -2169 0
-1905 -2170 0
-1901 -2206 0
-1902 -2207 0
-1903 -2208 0
-1904 -2209 0
-1905 -2210 0
-1901 -2211 0
-1902 -2212 0
-1903 -2213 0
-1904 -2214 0
-1905 -2215 0
-1901 -2251 0
-1902 -2252 0
-1903 -2253 0
-1904 -2254 0
-1905 -2255 0
-1901 -4666 0
-1902 -4667 0
-1903 -4668 0
-1904 -4669 0
-1905 -4670 0
-1906 -1921 0
-1907 -1922 0
-1908 -1923 0
-1909 -1924 0
-1910 -1925 0
-1906 -1926 0
-1907 -1927 0
-1908 -1928 0
-1909 -1929 0
-1910 -1930 0
-1906 -1946 0
-1907 -1947 0
-1908 -1948 0
-1909 -1949 0
-1910 -1950 0
-1906 -1971 0
-1907 -1972 0
-1908 -1973 0
-1909 -1974 0
-1910 -1975 0
-1906 -2016 0
-1907 -2017 0
-1908 -2018 0
-1909 -2019 0
-1910 -2020 0
-1906 -2041 0
-1907 -2042 0
-1908 -2043 0
-1909 -2044 0
-1910 -2045 0
-1906 -2121 0
-1907 -2122 0
-1908 -2123 0
-1909 -2124 0
-1910 -2125 0
-1906 -2136 0
-1907 -2137 0
-1908 -2138 0
-1909 -2139 0
-1910 -2140 0
-1906 -2166 0
-1907 -2167 0
-1908 -2168 0
-1909 -2169 0
-1910 -2170 0
-1906 -2171 0
-1907 -2172 0
-1908 -2173 0
-1909 -2174 0
-1910 -2175 0
-1906 -2216 0
-1907 -2217 0
-1908 -2218 0
-1909 -2219 0
-1910 -2220 0
-1906 -2221 0
-1907 -2222 0
-1908 -2223 0
-1909 -2224 0
-1910 -2225 0
-1906 -2256 0
-1907 -2257 0
-1908 -2258 0
-1909 -2259 0
-1910 -2260 0
-1906 -4676 0
-1907 -4677 0
-1908 -4678 0
-1909 -4679 0
-1910 -4680 0
-1911 -1926 0
-1912 -1927 0
-1913 -1928 0
-1914 -1929 0
-1915 -1930 0
-1911 -1931 0
-1912 -1932 0
-1913 -1933 0
-1914 -1934 0
-1915 -1935 0
-1911 -1956 0
-1912 -1957 0
-1913 -1958 0
-1914 -1959 0
-1915 -1960 0
-1911 -1991 0
-1912 -1992 0
-1913 -1993 0
-1914 -1994 0
-1915 -1995 0
-1911 -2026 0
-1912 -2027 0
-1913 -2028 0
-1914 -2029 0
-1915 -2030 0
-1911 -2061 0
-1912 -2062 0
-1913 -2063 0
-1914 -2064 0
-1915 -2065 0
-1911 -2086 0
-1912 -2087 0
-1913 -2088 0
-1914 -2089 0
-1915 -2090 0
-1911 -2131 0
-1912 -2132 0
-1913 -2133 0
-1914 -2134 0
-1915 -2135 0
-1911 -2146 0
-1912 -2147 0
-1913 -2148 0
-1914 -2149 0
-1915 -2150 0
-1911 -2171 0
-1912 -2172 0
-1913 -2173 0
-1914 -2174 0
-1915 -2175 0
-1911 -2226 0
-1912 -2227 0
-1913 -2228 0
-1914 -2229 0
-1915 -2230 0
-1911 -2231 0
-1912 -2232 0
-1913 -2233 0
-1914 -2234 0
-1915 -2235 0
-1911 -2261 0
-1912 -2262 0
-1913 -2263 0
-1914 -2264 0
-1915 -2265 0
-1911 -4626 0
-1912 -4627 0
-1913 -4628 0
-1914 -4629 0
-1915 -4630 0
-1916 -1926 0
-1917 -1927 0
-1918 -1928 0
-1919 -1929 0
-1920 -1930 0
-1916 -1936 0
-1917 -1937 0
-1918 -1938 0
-1919 -1939 0
-1920 -1940 0
-1916 -1961 0
-1917 -1962 0
-1918 -1963 0
-1919 -1964 0
-1920 -1965 0
-1916 -1996 0
-1917 -1997 0
-1918 -1998 0
-1919 -1999 0
-1920 -2000 0
-1916 -2031 0
-1917 -2032 0
-1918 -2033 0
-1919 -2034 0
-1920 -2035 0
-1916 -2091 0
-1917 -2092 0
-1918 -2093 0
-1919 -2094 0
-1920 -2095 0
-1916 -2136 0
-1917 -2137 0
-1918 -2138 0
-1919 -2139 0
-1920 -2140 0
-1916 -2236 0
-1917 -2237 0
-1918 -2238 0
-1919 -2239 0
-1920 -2240 0
-1916 -2261 0
-1917 -2262 0
-1918 -2263 0
-1919 -2264 0
-1920 -2265 0
-1916 -2291 0
-1917 -2292 0
-1918 -2293 0
-1919 -2294 0
-1920 -2295 0
-1916 -4646 0
-1917 -4647 0
-1918 -4648 0
-1919 -4649 0
-1920 -4650 0
-1921 -1931 0
-1922 -1932 0
-1923 -1933 0
-1924 -1934 0
-1925 -1935 0
-1921 -1941 0
-1922 -1942 0
-1923 -1943 0
-1924 -1944 0
-1925 -1945 0
-1921 -1971 0
-1922 -1972 0
-1923 -1973 0
-1924 -1974 0
-1925 -1975 0
-1921 -1981 0
-1922 -1982 0
-1923 -1983 0
-1924 -1984 0
-1925 -1985 0
-1921 -2006 0
-1922 -2007 0
-1923 -2008 0
-1924 -2009 0
-1925 -2010 0
-1921 -2041 0
-1922 -2042 0
-1923 -2043 0
-1924 -2044 0
-1925 -2045 0
-1921 -2046 0
-1922 -2047 0
-1923 -2048 0
-1924 -2049 0
-1925 -2050 0
-1921 -2051 0
-1922 -2052 0
-1923 -2053 0
-1924 -2054 0
-1925 -2055 0
-1921 -2086 0
-1922 -2087 0
-1923 -2088 0
-1924 -2089 0
-1925 -2090 0
-1921 -2101 0
-1922 -2102 0
-1923 -2103 0
-1924 -2104 0
-1925 -2105 0
-1921 -2236 0
-1922 -2237 0
-1923 -2238 0
-1924 -2239 0
-1925 -2240 0
-1921 -2241 0
-1922 -2242 0
-1923 -2243 0
-1924 -2244 0
-1925 -2245 0
-1921 -2266 0
-1922 -2267 0
-1923 -2268 0
-1924 -2269 0
-1925 -2270 0
-1921 -4656 0
-1922 -4657 0
-1923 -4658 0
-1924 -4659 0
-1925 -4660 0
-1926 -1936 0
-1927 -1937 0
-1928 -1938 0
-1929 -1939 0
-1930 -1940 0
-1926 -1946 0
-1927 -1947 0
-1928 -1948 0
-1929 -1949 0
-1930 -1950 0
-1926 -1991 0
-1927 -1992 0
-1928 -1993 0
-1929 -1994 0
-1930 -1995 0
-1926 -2016 0
-1927 -2017 0
-1928 -2018 0
-1929 -2019 0
-1930 -2020 0
-1926 -2096 0
-1927 -2097 0
-1928 -2098 0
-1929 -2099 0
-1930 -2100 0
-1926 -2111 0
-1927 -2112 0
-1928 -2113 0
-1929 -2114 0
-1930 -2115 0
-1926 -2241 0
-1927 -2242 0
-1928 -2243 0
-1929 -2244 0
-1930 -2245 0
-1926 -2246 0
-1927 -2247 0
-1928 -2248 0
-1929 -2249 0
-1930 -2250 0
-1926 -2271 0
-1927 -2272 0
-1928 -2273 0
-1929 -2274 0
-1930 -2275 0
-1926 -4666 0
-1927 -4667 0
-1928 -4668 0
-1929 -4669 0
-1930 -4670 0
-1931 -1941 0
-1932 -1942 0
-1933 -1943 0
-1934 -1944 0
-1935 -1945 0
-1931 -1956 0
-1932 -1957 0
-1933 -1958 0
-1934 -1959 0
-1935 -1960 0
-1931 -2001 0
-1932 -2002 0
-1933 -2003 0
-1934 -2004 0
-1935 -2005 0
-1931 -2026 0
-1932 -2027 0
-1933 -2028 0
-1934 -2029 0
-1935 -2030 0
-1931 -2051 0
-1932 -2052 0
-1933 -2053 0
-1934 -2054 0
-1935 -2055 0
-1931 -2056 0
-1932 -2057 0
-1933 -2058 0
-1934 -2059 0
-1935 -2060 0
-1931 -2106 0
-1932 -2107 0
-1933 -2108 0
-1934 -2109 0
-1935 -2110 0
-1931 -2121 0
-1932 -2122 0
-1933 -2123 0
-1934 -2124 0
-1935 -2125 0
-1931 -2246 0
-1932 -2247 0
-1933 -2248 0
-1934 -2249 0
-1935 -2250 0
-1931 -2251 0
-1932 -2252 0
-1933 -2253 0
-1934 -2254 0
-1935 -2255 0
-1931 -4676 0
-1932 -4677 0
-1933 -4678 0
-1934 -4679 0
-1935 -4680 0
-1936 -1966 0
-1937 -1967 0
-1938 -1968 0
-1939 -1969 0
-1940 -1970 0
-1936 -2011 0
-1937 -2012 0
-1938 -2013 0
-1939 -2014 0
-1940 -2015 0
-1936 -2036 0
-1937 -2037 0
-1938 -2038 0
-1939 -2039 0
-1940 -2040 0
-1936 -2116 0
-1937 -2117 0
-1938 -2118 0
-1939 -2119 0
-1940 -2120 0
-1936 -2131 0
-1937 -2132 0
-1938 -2133 0
-1939 -2134 0
-1940 -2135 0
-1936 -2251 0
-1937 -2252 0
-1938 -2253 0
-1939 -2254 0
-1940 -2255 0
-1936 -2256 0
-1937 -2257 0
-1938 -2258 0
-1939 -2259 0
-1940 -2260 0
-1936 -2276 0
-1937 -2277 0
-1938 -2278 0
-1939 -2279 0
-1940 -2280 0
-1936 -2281 0
-1937 -2282 0
-1938 -2283 0
-1939 -2284 0
-1940 -2285 0
-1936 -4626 0
-1937 -4627 0
-1938 -4628 0
-1939 -4629 0
-1940 -4630 0
-1941 -1951 0
-1942 -1952 0
-1943 -1953 0
-1944 -1954 0
-1945 -1955 0
-1941 -1976 0
-1942 -1977 0
-1943 -1978 0
-1944 -1979 0
-1945 -1980 0
-1941 -1986 0
-1942 -1987 0
-1943 -1988 0
-1944 -1989 0
-1945 -1990 0
-1941 -2021 0
-1942 -2022 0
-1943 -2023 0
-1944 -2024 0
-1945 -2025 0
-1941 -2046 0
-1942 -2047 0
-1943 -2048 0
-1944 -2049 0
-1945 -2050 0
-1941 -2056 0
-1942 -2057 0
-1943 -2058 0
-1944 -2059 0
-1945 -2060 0
-1941 -2126 0
-1942 -2127 0
-1943 -2128 0
-1944 -2129 0
-1945 -2130 0
-1941 -2141 0
-1942 -2142 0
-1943 -2143 0
-1944 -2144 0
-1945 -2145 0
-1941 -2256 0
-1942 -2257 0
-1943 -2258 0
-1944 -2259 0
-1945 -2260 0
-1941 -2261 0
-1942 -2262 0
-1943 -2263 0
-1944 -2264 0
-1945 -2265 0
-1941 -2286 0
-1942 -2287 0
-1943 -2288 0
-1944 -2289 0
-1945 -2290 0
-1941 -4636 0
-1942 -4637 0
-1943 -4638 0
-1944 -4639 0
-1945 -4640 0
-1946 -2036 0
-1947 -2037 0
-1948 -2038 0
-1949 -2039 0
-1950 -2040 0
-1946 -2096 0
-1947 -2097 0
-1948 -2098 0
-1949 -2099 0
-1950 -2100 0
-1946 -2231 0
-1947 -2232 0
-1948 -2233 0
-1949 -2234 0
-1950 -2235 0
-1946 -2266 0
-1947 -2267 0
-1948 -2268 0
-1949 -2269 0
-1950 -2270 0
-1946 -2291 0
-1947 -2292 0
-1948 -2293 0
-1949 -2294 0
-1950 -2295 0
-1946 -2296 0
-1947 -2297 0
-1948 -2298 0
-1949 -2299 0
-1950 -2300 0
-1951 -2001 0
-1952 -2002 0
-1953 -2003 0
-1954 -2004 0
-1955 -2005 0
-1951 -2071 0
-1952 -2072 0
-1953 -2073 0
-1954 -2074 0
-1955 -2075 0
-1951 -2141 0
-1952 -2142 0
-1953 -2143 0
-1954 -2144 0
-1955 -2145 0
-1951 -2186 0
-1952 -2187 0
-1953 -2188 0
-1954 -2189 0
-1955 -2190 0
-1951 -2301 0
-1952 -2302 0
-1953 -2303 0
-1954 -2304 0
-1955 -2305 0
-1951 -4636 0
-1952 -4637 0
-1953 -4638 0
-1954 -4639 0
-1955 -4640 0
-1956 -1986 0
-1957 -1987 0
-1958 -1988 0
-1959 -1989 0
-1960 -1990 0
-1956 -2061 0
-1957 -2062 0
-1958 -2063 0
-1959 -2064 0
-1960 -2065 0
-1956 -2106 0
-1957 -2107 0
-1958 -2108 0
-1959 -2109 0
-1960 -2110 0
-1956 -2181 0
-1957 -2182 0
-1958 -2183 0
-1959 -2184 0
-1960 -2185 0
-1956 -2266 0
-1957 -2267 0
-1958 -2268 0
-1959 -2269 0
-1960 -2270 0
-1956 -2271 0
-1957 -2272 0
-1958 -2273 0
-1959 -2274 0
-1960 -2275 0
-1956 -2306 0
-1957 -2307 0
-1958 -2308 0
-1959 -2309 0
-1960 -2310 0
-1961 -2011 0
-1962 -2012 0
-1963 -2013 0
-1964 -2014 0
-1965 -2015 0
-1961 -2076 0
-1962 -2077 0
-1963 -2078 0
-1964 -2079 0
-1965 -2080 0
-1961 -2091 0
-1962 -2092 0
-1963 -2093 0
-1964 -2094 0
-1965 -2095 0
-1961 -2196 0
-1962 -2197 0
-1963 -2198 0
-1964 -2199 0
-1965 -2200 0
-1961 -2311 0
-1962 -2312 0
-1963 -2313 0
-1964 -2314 0
-1965 -2315 0
-1961 -4646 0
-1962 -4647 0
-1963 -4648 0
-1964 -4649 0
-1965 -4650 0
-1966 -1996 0
-1967 -1997 0
-1968 -1998 0
-1969 -1999 0
-1970 -2000 0
-1966 -2066 0
-1967 -2067 0
-1968 -2068 0
-1969 -2069 0
-1970 -2070 0
-1966 -2116 0
-1967 -2117 0
-1968 -2118 0
-1969 -2119 0
-1970 -2120 0
-1966 -2191 0
-1967 -2192 0
-1968 -2193 0
-1969 -2194 0
-1970 -2195 0
-1966 -2271 0
-1967 -2272 0
-1968 -2273 0
-1969 -2274 0
-1970 -2275 0
-1966 -2316 0
-1967 -2317 0
-1968 -2318 0
-1969 -2319 0
-1970 -2320 0
-1971 -2021 0
-1972 -2022 0
-1973 -2023 0
-1974 -2024 0
-1975 -2025 0
-1971 -2101 0
-1972 -2102 0
-1973 -2103 0
-1974 -2104 0
-1975 -2105 0
-1971 -2206 0
-1972 -2207 0
-1973 -2208 0
-1974 -2209 0
-1975 -2210 0
-1971 -2321 0
-1972 -2322 0
-1973 -2323 0
-1974 -2324 0
-1975 -2325 0
-1971 -4656 0
-1972 -4657 0
-1973 -4658 0
-1974 -4659 0
-1975 -4660 0
-1976 -2006 0
-1977 -2007 0
-1978 -2008 0
-1979 -2009 0
-1980 -2010 0
-1976 -2126 0
-1977 -2127 0
-1978 -2128 0
-1979 -2129 0
-1980 -2130 0
-1976 -2201 0
-1977 -2202 0
-1978 -2203 0
-1979 -2204 0
-1980 -2205 0
-1976 -2276 0
-1977 -2277 0
-1978 -2278 0
-1979 -2279 0
-1980 -2280 0
-1976 -2326 0
-1977 -2327 0
-1978 -2328 0
-1979 -2329 0
-1980 -2330 0
-1981 -2026 0
-1982 -2027 0
-1983 -2028 0
-1984 -2029 0
-1985 -2030 0
-1981 -2081 0
-1982 -2082 0
-1983 -2083 0
-1984 -2084 0
-1985 -2085 0
-1981 -2086 0
-1982 -2087 0
-1983 -2088 0
-1984 -2089 0
-1985 -2090 0
-1981 -2221 0
-1982 -2222 0
-1983 -2223 0
-1984 -2224 0
-1985 -2225 0
-1981 -2286 0
-1982 -2287 0
-1983 -2288 0
-1984 -2289 0
-1985 -2290 0
-1981 -2291 0
-1982 -2292 0
-1983 -2293 0
-1984 -2294 0
-1985 -2295 0
-1981 -2346 0
-1982 -2347 0
-1983 -2348 0
-1984 -2349 0
-1985 -2350 0
-1986 -1996 0
-1987 -1997 0
-1988 -1998 0
-1989 -1999 0
-1990 -2000 0
-1986 -2036 0
-1987 -2037 0
-1988 -2038 0
-1989 -2039 0
-1990 -2040 0
-1986 -2151 0
-1987 -2152 0
-1988 -2153 0
-1989 -2154 0
-1990 -2155 0
-1986 -2261 0
-1987 -2262 0
-1988 -2263 0
-1989 -2264 0
-1990 -2265 0
-1986 -2266 0
-1987 -2267 0
-1988 -2268 0
-1989 -2269 0
-1990 -2270 0
-1986 -2301 0
-1987 -2302 0
-1988 -2303 0
-1989 -2304 0
-1990 -2305 0
-1986 -2351 0
-1987 -2352 0
-1988 -2353 0
-1989 -2354 0
-1990 -2355 0
-1986 -2356 0
-1987 -2357 0
-1988 -2358 0
-1989 -2359 0
-1990 -2360 0
-1986 -2376 0
-1987 -2377 0
-1988 -2378 0
-1989 -2379 0
-1990 -2380 0
-1986 -2406 0
-1987 -2407 0
-1988 -2408 0
-1989 -2409 0
-1990 -2410 0
-1991 -2001 0
-1992 -2002 0
-1993 -2003 0
-1994 -2004 0
-1995 -2005 0
-1991 -2041 0
-1992 -2042 0
-1993 -2043 0
-1994 -2044 0
-1995 -2045 0
-1991 -2146 0
-1992 -2147 0
-1993 -2148 0
-1994 -2149 0
-1995 -2150 0
-1991 -2241 0
-1992 -2242 0
-1993 -2243 0
-1994 -2244 0
-1995 -2245 0
-1991 -2296 0
-1992 -2297 0
-1993 -2298 0
-1994 -2299 0
-1995 -2300 0
-1991 -2306 0
-1992 -2307 0
-1993 -2308 0
-1994 -2309 0
-1995 -2310 0
-1991 -2356 0
-1992 -2357 0
-1993 -2358 0
-1994 -2359 0
-1995 -2360 0
-1991 -2381 0
-1992 -2382 0
-1993 -2383 0
-1994 -2384 0
-1995 -2385 0
-1991 -2411 0
-1992 -2412 0
-1993 -2413 0
-1994 -2414 0
-1995 -2415 0
-1996 -2006 0
-1997 -2007 0
-1998 -2008 0
-1999 -2009 0
-2000 -2010 0
-1996 -2156 0
-1997 -2157 0
-1998 -2158 0
-1999 -2159 0
-2000 -2160 0
-1996 -2236 0
-1997 -2237 0
-1998 -2238 0
-1999 -2239 0
-2000 -2240 0
-1996 -2271 0
-1997 -2272 0
-1998 -2273 0
-1999 -2274 0
-2000 -2275 0
-1996 -2301 0
-1997 -2302 0
-1998 -2303 0
-1999 -2304 0
-2000 -2305 0
-1996 -2311 0
-1997 -2312 0
-1998 -2313 0
-1999 -2314 0
-2000 -2315 0
-1996 -2381 0
-1997 -2382 0
-1998 -2383 0
-1999 -2384 0
-2000 -2385 0
-1996 -2416 0
-1997 -2417 0
-1998 -2418 0
-1999 -2419 0
-2000 -2420 0
-2001 -2011 0
-2002 -2012 0
-2003 -2013 0
-2004 -2014 0
-2005 -2015 0
-2001 -2151 0
-2002 -2152 0
-2003 -2153 0
-2004 -2154 0
-2005 -2155 0
-2001 -2246 0
-2002 -2247 0
-2003 -2248 0
-2004 -2249 0
-2005 -2250 0
-2001 -2306 0
-2002 -2307 0
-2003 -2308 0
-2004 -2309 0
-2005 -2310 0
-2001 -2316 0
-2002 -2317 0
-2003 -2318 0
-2004 -2319 0
-2005 -2320 0
-2001 -2386 0
-2002 -2387 0
-2003 -2388 0
-2004 -2389 0
-2005 -2390 0
-2001 -2421 0
-2002 -2422 0
-2003 -2423 0
-2004 -2424 0
-2005 -2425 0
-2006 -2016 0
-2007 -2017 0
-2008 -2018 0
-2009 -2019 0
-2010 -2020 0
-2006 -2161 0
-2007 -2162 0
-2008 -2163 0
-2009 -2164 0
-2010 -2165 0
-2006 -2241 0
-2007 -2242 0
-2008 -2243 0
-2009 -2244 0
-2010 -2245 0
-2006 -2311 0
-2007 -2312 0
-2008 -2313 0
-2009 -2314 0
-2010 -2315 0
-2006 -2321 0
-2007 -2322 0
-2008 -2323 0
-2009 -2324 0
-2010 -2325 0
-2006 -2361 0
-2007 -2362 0
-2008 -2363 0
-2009 -2364 0
-2010 -2365 0
-2006 -2386 0
-2007 -2387 0
-2008 -2388 0
-2009 -2389 0
-2010 -2390 0
-2006 -2426 0
-2007 -2427 0
-2008 -2428 0
-2009 -2429 0
-2010 -2430 0
-2011 -2021 0
-2012 -2022 0
-2013 -2023 0
-2014 -2024 0
-2015 -2025 0
-2011 -2156 0
-2012 -2157 0
-2013 -2158 0
-2014 -2159 0
-2015 -2160 0
-2011 -2251 0
-2012 -2252 0
-2013 -2253 0
-2014 -2254 0
-2015 -2255 0
-2011 -2316 0
-2012 -2317 0
-2013 -2318 0
-2014 -2319 0
-2015 -2320 0
-2011 -2326 0
-2012 -2327 0
-2013 -2328 0
-2014 -2329 0
-2015 -2330 0
-2011 -2361 0
-2012 -2362 0
-2013 -2363 0
-2014 -2364 0
-2015 -2365 0
-2011 -2391 0
-2012 -2392 0
-2013 -2393 0
-2014 -2394 0
-2015 -2395 0
-2011 -2431 0
-2012 -2432 0
-2013 -2433 0
-2014 -2434 0
-2015 -2435 0
-2016 -2026 0
-2017 -2027 0
-2018 -2028 0
-2019 -2029 0
-2020 -2030 0
-2016 -2166 0
-2017 -2167 0
-2018 -2168 0
-2019 -2169 0
-2020 -2170 0
-2016 -2246 0
-2017 -2247 0
-2018 -2248 0
-2019 -2249 0
-2020 -2250 0
-2016 -2276 0
-2017 -2277 0
-2018 -2278 0
-2019 -2279 0
-2020 -2280 0
-2016 -2321 0
-2017 -2322 0
-2018 -2323 0
-2019 -2324 0
-2020 -2325 0
-2016 -2331 0
-2017 -2332 0
-2018 -2333 0
-2019 -2334 0
-2020 -2335 0
-2016 -2366 0
-2017 -2367 0
-2018 -2368 0
-2019 -2369 0
-2020 -2370 0
-2016 -2391 0
-2017 -2392 0
-2018 -2393 0
-2019 -2394 0
-2020 -2395 0
-2016 -2436 0
-2017 -2437 0
-2018 -2438 0
-2019 -2439 0
-2020 -2440 0
-2021 -2031 0
-2022 -2032 0
-2023 -2033 0
-2024 -2034 0
-2025 -2035 0
-2021 -2161 0
-2022 -2162 0
-2023 -2163 0
-2024 -2164 0
-2025 -2165 0
-2021 -2256 0
-2022 -2257 0
-2023 -2258 0
-2024 -2259 0
-2025 -2260 0
-2021 -2326 0
-2022 -2327 0
-2023 -2328 0
-2024 -2329 0
-2025 -2330 0
-2021 -2336 0
-2022 -2337 0
-2023 -2338 0
-2024 -2339 0
-2025 -2340 0
-2021 -2366 0
-2022 -2367 0
-2023 -2368 0
-2024 -2369 0
-2025 -2370 0
-2021 -2396 0
-2022 -2397 0
-2023 -2398 0
-2024 -2399 0
-2025 -2400 0
-2021 -2441 0
-2022 -2442 0
-2023 -2443 0
-2024 -2444 0
-2025 -2445 0
-2026 -2036 0
-2027 -2037 0
-2028 -2038 0
-2029 -2039 0
-2030 -2040 0
-2026 -2171 0
-2027 -2172 0
-2028 -2173 0
-2029 -2174 0
-2030 -2175 0
-2026 -2251 0
-2027 -2252 0
-2028 -2253 0
-2029 -2254 0
-2030 -2255 0
-2026 -2286 0
-2027 -2287 0
-2028 -2288 0
-2029 -2289 0
-2030 -2290 0
-2026 -2331 0
-2027 -2332 0
-2028 -2333 0
-2029 -2334 0
-2030 -2335 0
-2026 -2341 0
-2027 -2342 0
-2028 -2343 0
-2029 -2344 0
-2030 -2345 0
-2026 -2396 0
-2027 -2397 0
-2028 -2398 0
-2029 -2399 0
-2030 -2400 0
-2026 -2446 0
-2027 -2447 0
-2028 -2448 0
-2029 -2449 0
-2030 -2450 0
-2031 -2041 0
-2032 -2042 0
-2033 -2043 0
-2034 -2044 0
-2035 -2045 0
-2031 -2166 0
-2032 -2167 0
-2033 -2168 0
-2034 -2169 0
-2035 -2170 0
-2031 -2261 0
-2032 -2262 0
-2033 -2263 0
-2034 -2264 0
-2035 -2265 0
-2031 -2281 0
-2032 -2282 0
-2033 -2283 0
-2034 -2284 0
-2035 -2285 0
-2031 -2336 0
-2032 -2337 0
-2033 -2338 0
-2034 -2339 0
-2035 -2340 0
-2031 -2346 0
-2032 -2347 0
-2033 -2348 0
-2034 -2349 0
-2035 -2350 0
-2031 -2401 0
-2032 -2402 0
-2033 -2403 0
-2034 -2404 0
-2035 -2405 0
-2031 -2451 0
-2032 -2452 0
-2033 -2453 0
-2034 -2454 0
-2035 -2455 0
-2036 -2146 0
-2037 -2147 0
-2038 -2148 0
-2039 -2149 0
-2040 -2150 0
-2036 -2256 0
-2037 -2257 0
-2038 -2258 0
-2039 -2259 0
-2040 -2260 0
-2036 -2291 0
-2037 -2292 0
-2038 -2293 0
-2039 -2294 0
-2040 -2295 0
-2036 -2341 0
-2037 -2342 0
-2038 -2343 0
-2039 -2344 0
-2040 -2345 0
-2036 -2351 0
-2037 -2352 0
-2038 -2353 0
-2039 -2354 0
-2040 -2355 0
-2036 -2371 0
-2037 -2372 0
-2038 -2373 0
-2039 -2374 0
-2040 -2375 0
-2036 -2401 0
-2037 -2402 0
-2038 -2403 0
-2039 -2404 0
-2040 -2405 0
-2036 -2456 0
-2037 -2457 0
-2038 -2458 0
-2039 -2459 0
-2040 -2460 0
-2041 -2171 0
-2042 -2172 0
-2043 -2173 0
-2044 -2174 0
-2045 -2175 0
-2041 -2236 0
-2042 -2237 0
-2043 -2238 0
-2044 -2239 0
-2045 -2240 0
-2041 -2296 0
-2042 -2297 0
-2043 -2298 0
-2044 -2299 0
-2045 -2300 0
-2041 -2346 0
-2042 -2347 0
-2043 -2348 0
-2044 -2349 0
-2045 -2350 0
-2041 -2371 0
-2042 -2372 0
-2043 -2373 0
-2044 -2374 0
-2045 -2375 0
-2041 -2376 0
-2042 -2377 0
-2043 -2378 0
-2044 -2379 0
-2045 -2380 0
-2041 -2461 0
-2042 -2462 0
-2043 -2463 0
-2044 -2464 0
-2045 -2465 0
-2046 -2091 0
-2047 -2092 0
-2048 -2093 0
-2049 -2094 0
-2050 -2095 0
-2046 -2136 0
-2047 -2137 0
-2048 -2138 0
-2049 -2139 0
-2050 -2140 0
-2046 -4646 0
-2047 -4647 0
-2048 -4648 0
-2049 -4649 0
-2050 -4650 0
-2051 -2096 0
-2052 -2097 0
-2053 -2098 0
-2054 -2099 0
-2055 -2100 0
-2051 -2111 0
-2052 -2112 0
-2053 -2113 0
-2054 -2114 0
-2055 -2115 0
-2051 -4666 0
-2052 -4667 0
-2053 -4668 0
-2054 -4669 0
-2055 -4670 0
-2056 -2116 0
-2057 -2117 0
-2058 -2118 0
-2059 -2119 0
-2060 -2120 0
-2056 -2131 0
-2057 -2132 0
-2058 -2133 0
-2059 -2134 0
-2060 -2135 0
-2056 -4626 0
-2057 -4627 0
-2058 -4628 0
-2059 -4629 0
-2060 -4630 0
-2061 -2096 0
-2062 -2097 0
-2063 -2098 0
-2064 -2099 0
-2065 -2100 0
-2061 -2231 0
-2062 -2232 0
-2063 -2233 0
-2064 -2234 0
-2065 -2235 0
-2061 -2376 0
-2062 -2377 0
-2063 -2378 0
-2064 -2379 0
-2065 -2380 0
-2061 -2411 0
-2062 -2412 0
-2063 -2413 0
-2064 -2414 0
-2065 -2415 0
-2066 -2106 0
-2067 -2107 0
-2068 -2108 0
-2069 -2109 0
-2070 -2110 0
-2066 -2181 0
-2067 -2182 0
-2068 -2183 0
-2069 -2184 0
-2070 -2185 0
-2066 -2381 0
-2067 -2382 0
-2068 -2383 0
-2069 -2384 0
-2070 -2385 0
-2066 -2421 0
-2067 -2422 0
-2068 -2423 0
-2069 -2424 0
-2070 -2425 0
-2071 -2091 0
-2072 -2092 0
-2073 -2093 0
-2074 -2094 0
-2075 -2095 0
-2071 -2196 0
-2072 -2197 0
-2073 -2198 0
-2074 -2199 0
-2075 -2200 0
-2071 -2386 0
-2072 -2387 0
-2073 -2388 0
-2074 -2389 0
-2075 -2390 0
-2071 -2416 0
-2072 -2417 0
-2073 -2418 0
-2074 -2419 0
-2075 -2420 0
-2071 -4646 0
-2072 -4647 0
-2073 -4648 0
-2074 -4649 0
-2075 -4650 0
-2076 -2101 0
-2077 -2102 0
-2078 -2103 0
-2079 -2104 0
-2080 -2105 0
-2076 -2206 0
-2077 -2207 0
-2078 -2208 0
-2079 -2209 0
-2080 -2210 0
-2076 -2391 0
-2077 -2392 0
-2078 -2393 0
-2079 -2394 0
-2080 -2395 0
-2076 -2426 0
-2077 -2427 0
-2078 -2428 0
-2079 -2429 0
-2080 -2430 0
-2076 -4656 0
-2077 -4657 0
-2078 -4658 0
-2079 -4659 0
-2080 -4660 0
-2081 -2136 0
-2082 -2137 0
-2083 -2138 0
-2084 -2139 0
-2085 -2140 0
-2081 -2211 0
-2082 -2212 0
-2083 -2213 0
-2084 -2214 0
-2085 -2215 0
-2081 -2396 0
-2082 -2397 0
-2083 -2398 0
-2084 -2399 0
-2085 -2400 0
-2081 -2451 0
-2082 -2452 0
-2083 -2453 0
-2084 -2454 0
-2085 -2455 0
-2086 -2261 0
-2087 -2262 0
-2088 -2263 0
-2089 -2264 0
-2090 -2265 0
-2086 -2266 0
-2087 -2267 0
-2088 -2268 0
-2089 -2269 0
-2090 -2270 0
-2086 -2461 0
-2087 -2462 0
-2088 -2463 0
-2089 -2464 0
-2090 -2465 0
-2086 -2466 0
-2087 -2467 0
-2088 -2468 0
-2089 -2469 0
-2090 -2470 0
-2091 -2241 0
-2092 -2242 0
-2093 -2243 0
-2094 -2244 0
-2095 -2245 0
-2091 -2416 0
-2092 -2417 0
-2093 -2418 0
-2094 -2419 0
-2095 -2420 0
-2091 -4431 0
-2092 -4432 0
-2093 -4433 0
-2094 -4434 0
-2095 -4435 0
-2091 -4471 0
-2092 -4472 0
-2093 -4473 0
-2094 -4474 0
-2095 -4475 0
-2091 -4496 0
-2092 -4497 0
-2093 -4498 0
-2094 -4499 0
-2095 -4500 0
-2091 -4606 0
-2092 -4607 0
-2093 -4608 0
-2094 -4609 0
-2095 -4610 0
-2091 -4781 0
-2092 -4782 0
-2093 -4783 0
-2094 -4784 0
-2095 -4785 0
-2091 -4961 0
-2092 -4962 0
-2093 -4963 0
-2094 -4964 0
-2095 -4965 0
-2091 -5011 0
-2092 -5012 0
-2093 -5013 0
-2094 -5014 0
-2095 -5015 0
-2096 -2236 0
-2097 -2237 0
-2098 -2238 0
-2099 -2239 0
-2100 -2240 0
-2096 -2271 0
-2097 -2272 0
-2098 -2273 0
-2099 -2274 0
-2100 -2275 0
-2096 -2411 0
-2097 -2412 0
-2098 -2413 0
-2099 -2414 0
-2100 -2415 0
-2101 -2246 0
-2102 -2247 0
-2103 -2248 0
-2104 -2249 0
-2105 -2250 0
-2101 -2426 0
-2102 -2427 0
-2103 -2428 0
-2104 -2429 0
-2105 -2430 0
-2101 -4436 0
-2102 -4437 0
-2103 -4438 0
-2104 -4439 0
-2105 -4440 0
-2101 -4476 0
-2102 -4477 0
-2103 -4478 0
-2104 -4479 0
-2105 -4480 0
-2101 -4506 0
-2102 -4507 0
-2103 -4508 0
-2104 -4509 0
-2105 -4510 0
-2101 -4596 0
-2102 -4597 0
-2103 -4598 0
-2104 -4599 0
-2105 -4600 0
-2101 -4786 0
-2102 -4787 0
-2103 -4788 0
-2104 -4789 0
-2105 -4790 0
-2101 -4816 0
-2102 -4817 0
-2103 -4818 0
-2104 -4819 0
-2105 -4820 0
-2101 -4971 0
-2102 -4972 0
-2103 -4973 0
-2104 -4974 0
-2105 -4975 0
-2106 -2241 0
-2107 -2242 0
-2108 -2243 0
-2109 -2244 0
-2110 -2245 0
-2106 -2421 0
-2107 -2422 0
-2108 -2423 0
-2109 -2424 0
-2110 -2425 0
-2106 -2471 0
-2107 -2472 0
-2108 -2473 0
-2109 -2474 0
-2110 -2475 0
-2111 -2251 0
-2112 -2252 0
-2113 -2253 0
-2114 -2254 0
-2115 -2255 0
-2111 -2436 0
-2112 -2437 0
-2113 -2438 0
-2114 -2439 0
-2115 -2440 0
-2111 -4441 0
-2112 -4442 0
-2113 -4443 0
-2114 -4444 0
-2115 -4445 0
-2111 -4481 0
-2112 -4482 0
-2113 -4483 0
-2114 -4484 0
-2115 -4485 0
-2111 -4516 0
-2112 -4517 0
-2113 -4518 0
-2114 -4519 0
-2115 -4520 0
-2111 -4791 0
-2112 -4792 0
-2113 -4793 0
-2114 -4794 0
-2115 -4795 0
-2111 -4826 0
-2112 -4827 0
-2113 -4828 0
-2114 -4829 0
-2115 -4830 0
-2111 -4981 0
-2112 -4982 0
-2113 -4983 0
-2114 -4984 0
-2115 -4985 0
-2116 -2246 0
-2117 -2247 0
-2118 -2248 0
-2119 -2249 0
-2120 -2250 0
-2116 -2276 0
-2117 -2277 0
-2118 -2278 0
-2119 -2279 0
-2120 -2280 0
-2116 -2431 0
-2117 -2432 0
-2118 -2433 0
-2119 -2434 0
-2120 -2435 0
-2121 -2256 0
-2122 -2257 0
-2123 -2258 0
-2124 -2259 0
-2125 -2260 0
-2121 -2446 0
-2122 -2447 0
-2123 -2448 0
-2124 -2449 0
-2125 -2450 0
-2121 -2476 0
-2122 -2477 0
-2123 -2478 0
-2124 -2479 0
-2125 -2480 0
-2121 -4421 0
-2122 -4422 0
-2123 -4423 0
-2124 -4424 0
-2125 -4425 0
-2121 -4446 0
-2122 -4447 0
-2123 -4448 0
-2124 -4449 0
-2125 -4450 0
-2121 -4456 0
-2122 -4457 0
-2123 -4458 0
-2124 -4459 0
-2125 -4460 0
-2121 -4586 0
-2122 -4587 0
-2123 -4588 0
-2124 -4589 0
-2125 -4590 0
-2121 -4621 0
-2122 -4622 0
-2123 -4623 0
-2124 -4624 0
-2125 -4625 0
-2121 -4796 0
-2122 -4797 0
-2123 -4798 0
-2124 -4799 0
-2125 -4800 0
-2121 -4831 0
-2122 -4832 0
-2123 -4833 0
-2124 -4834 0
-2125 -4835 0
-2121 -4991 0
-2122 -4992 0
-2123 -4993 0
-2124 -4994 0
-2125 -4995 0
-2121 -5021 0
-2122 -5022 0
-2123 -5023 0
-2124 -5024 0
-2125 -5025 0
-2126 -2251 0
-2127 -2252 0
-2128 -2253 0
-2129 -2254 0
-2130 -2255 0
-2126 -2286 0
-2127 -2287 0
-2128 -2288 0
-2129 -2289 0
-2130 -2290 0
-2126 -2441 0
-2127 -2442 0
-2128 -2443 0
-2129 -2444 0
-2130 -2445 0
-2131 -2261 0
-2132 -2262 0
-2133 -2263 0
-2134 -2264 0
-2135 -2265 0
-2131 -2281 0
-2132 -2282 0
-2133 -2283 0
-2134 -2284 0
-2135 -2285 0
-2131 -2456 0
-2132 -2457 0
-2133 -2458 0
-2134 -2459 0
-2135 -2460 0
-2131 -4451 0
-2132 -4452 0
-2133 -4453 0
-2134 -4454 0
-2135 -4455 0
-2131 -4461 0
-2132 -4462 0
-2133 -4463 0
-2134 -4464 0
-2135 -4465 0
-2131 -4521 0
-2132 -4522 0
-2133 -4523 0
-2134 -4524 0
-2135 -4525 0
-2131 -4801 0
-2132 -4802 0
-2133 -4803 0
-2134 -4804 0
-2135 -4805 0
-2131 -4806 0
-2132 -4807 0
-2133 -4808 0
-2134 -4809 0
-2135 -4810 0
-2131 -5001 0
-2132 -5002 0
-2133 -5003 0
-2134 -5004 0
-2135 -5005 0
-2131 -5006 0
-2132 -5007 0
-2133 -5008 0
-2134 -5009 0
-2135 -5010 0
-2136 -2256 0
-2137 -2257 0
-2138 -2258 0
-2139 -2259 0
-2140 -2260 0
-2136 -2291 0
-2137 -2292 0
-2138 -2293 0
-2139 -2294 0
-2140 -2295 0
-2136 -2451 0
-2137 -2452 0
-2138 -2453 0
-2139 -2454 0
-2140 -2455 0
-2136 -2481 0
-2137 -2482 0
-2138 -2483 0
-2139 -2484 0
-2140 -2485 0
-2141 -2236 0
-2142 -2237 0
-2143 -2238 0
-2144 -2239 0
-2145 -2240 0
-2141 -2406 0
-2142 -2407 0
-2143 -2408 0
-2144 -2409 0
-2145 -2410 0
-2141 -4426 0
-2142 -4427 0
-2143 -4428 0
-2144 -4429 0
-2145 -4430 0
-2141 -4466 0
-2142 -4467 0
-2143 -4468 0
-2144 -4469 0
-2145 -4470 0
-2141 -4486 0
-2142 -4487 0
-2143 -4488 0
-2144 -4489 0
-2145 -4490 0
-2141 -4591 0
-2142 -4592 0
-2143 -4593 0
-2144 -4594 0
-2145 -4595 0
-2141 -4601 0
-2142 -4602 0
-2143 -4603 0
-2144 -4604 0
-2145 -4605 0
-2141 -4776 0
-2142 -4777 0
-2143 -4778 0
-2144 -4779 0
-2145 -4780 0
-2141 -4811 0
-2142 -4812 0
-2143 -4813 0
-2144 -4814 0
-2145 -4815 0
-2141 -4951 0
-2142 -4952 0
-2143 -4953 0
-2144 -4954 0
-2145 -4955 0
-2146 -2181 0
-2147 -2182 0
-2148 -2183 0
-2149 -2184 0
-2150 -2185 0
-2146 -2226 0
-2147 -2227 0
-2148 -2228 0
-2149 -2229 0
-2150 -2230 0
-2146 -2356 0
-2147 -2357 0
-2148 -2358 0
-2149 -2359 0
-2150 -2360 0
-2146 -2371 0
-2147 -2372 0
-2148 -2373 0
-2149 -2374 0
-2150 -2375 0
-2146 -2466 0
-2147 -2467 0
-2148 -2468 0
-2149 -2469 0
-2150 -2470 0
-2151 -2176 0
-2152 -2177 0
-2153 -2178 0
-2154 -2179 0
-2155 -2180 0
-2151 -2191 0
-2152 -2192 0
-2153 -2193 0
-2154 -2194 0
-2155 -2195 0
-2151 -2356 0
-2152 -2357 0
-2153 -2358 0
-2154 -2359 0
-2155 -2360 0
-2156 -2186 0
-2157 -2187 0
-2158 -2188 0
-2159 -2189 0
-2160 -2190 0
-2156 -2201 0
-2157 -2202 0
-2158 -2203 0
-2159 -2204 0
-2160 -2205 0
-2156 -2361 0
-2157 -2362 0
-2158 -2363 0
-2159 -2364 0
-2160 -2365 0
-2156 -2471 0
-2157 -2472 0
-2158 -2473 0
-2159 -2474 0
-2160 -2475 0
-2161 -2196 0
-2162 -2197 0
-2163 -2198 0
-2164 -2199 0
-2165 -2200 0
-2161 -2211 0
-2162 -2212 0
-2163 -2213 0
-2164 -2214 0
-2165 -2215 0
-2161 -2361 0
-2162 -2362 0
-2163 -2363 0
-2164 -2364 0
-2165 -2365 0
-2161 -2366 0
-2162 -2367 0
-2163 -2368 0
-2164 -2369 0
-2165 -2370 0
-2166 -2206 0
-2167 -2207 0
-2168 -2208 0
-2169 -2209 0
-2170 -2210 0
-2166 -2221 0
-2167 -2222 0
-2168 -2223 0
-2169 -2224 0
-2170 -2225 0
-2166 -2366 0
-2167 -2367 0
-2168 -2368 0
-2169 -2369 0
-2170 -2370 0
-2166 -2476 0
-2167 -2477 0
-2168 -2478 0
-2169 -2479 0
-2170 -2480 0
-2171 -2216 0
-2172 -2217 0
-2173 -2218 0
-2174 -2219 0
-2175 -2220 0
-2171 -2231 0
-2172 -2232 0
-2173 -2233 0
-2174 -2234 0
-2175 -2235 0
-2171 -2371 0
-2172 -2372 0
-2173 -2373 0
-2174 -2374 0
-2175 -2375 0
-2171 -2481 0
-2172 -2482 0
-2173 -2483 0
-2174 -2484 0
-2175 -2485 0
-2176 -2351 0
-2177 -2352 0
-2178 -2353 0
-2179 -2354 0
-2180 -2355 0
-2176 -2411 0
-2177 -2412 0
-2178 -2413 0
-2179 -2414 0
-2180 -2415 0
-2176 -2486 0
-2177 -2487 0
-2178 -2488 0
-2179 -2489 0
-2180 -2490 0
-2181 -2306 0
-2182 -2307 0
-2183 -2308 0
-2184 -2309 0
-2185 -2310 0
-2181 -2406 0
-2182 -2407 0
-2183 -2408 0
-2184 -2409 0
-2185 -2410 0
-2181 -2491 0
-2182 -2492 0
-2183 -2493 0
-2184 -2494 0
-2185 -2495 0
-2186 -2301 0
-2187 -2302 0
-2188 -2303 0
-2189 -2304 0
-2190 -2305 0
-2186 -2421 0
-2187 -2422 0
-2188 -2423 0
-2189 -2424 0
-2190 -2425 0
-2186 -2496 0
-2187 -2497 0
-2188 -2498 0
-2189 -2499 0
-2190 -2500 0
-2191 -2316 0
-2192 -2317 0
-2193 -2318 0
-2194 -2319 0
-2195 -2320 0
-2191 -2416 0
-2192 -2417 0
-2193 -2418 0
-2194 -2419 0
-2195 -2420 0
-2191 -2501 0
-2192 -2502 0
-2193 -2503 0
-2194 -2504 0
-2195 -2505 0
-2196 -2311 0
-2197 -2312 0
-2198 -2313 0
-2199 -2314 0
-2200 -2315 0
-2196 -2431 0
-2197 -2432 0
-2198 -2433 0
-2199 -2434 0
-2200 -2435 0
-2196 -2506 0
-2197 -2507 0
-2198 -2508 0
-2199 -2509 0
-2200 -2510 0
-2201 -2326 0
-2202 -2327 0
-2203 -2328 0
-2204 -2329 0
-2205 -2330 0
-2201 -2426 0
-2202 -2427 0
-2203 -2428 0
-2204 -2429 0
-2205 -2430 0
-2201 -2511 0
-2202 -2512 0
-2203 -2513 0
-2204 -2514 0
-2205 -2515 0
-2206 -2321 0
-2207 -2322 0
-2208 -2323 0
-2209 -2324 0
-2210 -2325 0
-2206 -2441 0
-2207 -2442 0
-2208 -2443 0
-2209 -2444 0
-2210 -2445 0
-2206 -2516 0
-2207 -2517 0
-2208 -2518 0
-2209 -2519 0
-2210 -2520 0
-2211 -2336 0
-2212 -2337 0
-2213 -2338 0
-2214 -2339 0
-2215 -2340 0
-2211 -2436 0
-2212 -2437 0
-2213 -2438 0
-2214 -2439 0
-2215 -2440 0
-2211 -2521 0
-2212 -2522 0
-2213 -2523 0
-2214 -2524 0
-2215 -2525 0
-2216 -2331 0
-2217 -2332 0
-2218 -2333 0
-2219 -2334 0
-2220 -2335 0
-2216 -2451 0
-2217 -2452 0
-2218 -2453 0
-2219 -2454 0
-2220 -2455 0
-2216 -2526 0
-2217 -2527 0
-2218 -2528 0
-2219 -2529 0
-2220 -2530 0
-2221 -2346 0
-2222 -2347 0
-2223 -2348 0
-2224 -2349 0
-2225 -2350 0
-2221 -2446 0
-2222 -2447 0
-2223 -2448 0
-2224 -2449 0
-2225 -2450 0
-2221 -2531 0
-2222 -2532 0
-2223 -2533 0
-2224 -2534 0
-2225 -2535 0
-2226 -2341 0
-2227 -2342 0
-2228 -2343 0
-2229 -2344 0
-2230 -2345 0
-2226 -2461 0
-2227 -2462 0
-2228 -2463 0
-2229 -2464 0
-2230 -2465 0
-2226 -2536 0
-2227 -2537 0
-2228 -2538 0
-2229 -2539 0
-2230 -2540 0
-2231 -2296 0
-2232 -2297 0
-2233 -2298 0
-2234 -2299 0
-2235 -2300 0
-2231 -2456 0
-2232 -2457 0
-2233 -2458 0
-2234 -2459 0
-2235 -2460 0
-2231 -2541 0
-2232 -2542 0
-2233 -2543 0
-2234 -2544 0
-2235 -2545 0
-2236 -2291 0
-2237 -2292 0
-2238 -2293 0
-2239 -2294 0
-2240 -2295 0
-2236 -2376 0
-2237 -2377 0
-2238 -2378 0
-2239 -2379 0
-2240 -2380 0
-2236 -2381 0
-2237 -2382 0
-2238 -2383 0
-2239 -2384 0
-2240 -2385 0
-2236 -2466 0
-2237 -2467 0
-2238 -2468 0
-2239 -2469 0
-2240 -2470 0
-2236 -2486 0
-2237 -2487 0
-2238 -2488 0
-2239 -2489 0
-2240 -2490 0
-2236 -2491 0
-2237 -2492 0
-2238 -2493 0
-2239 -2494 0
-2240 -2495 0
-2236 -4636 0
-2237 -4637 0
-2238 -4638 0
-2239 -4639 0
-2240 -4640 0
-2241 -2266 0
-2242 -2267 0
-2243 -2268 0
-2244 -2269 0
-2245 -2270 0
-2241 -2381 0
-2242 -2382 0
-2243 -2383 0
-2244 -2384 0
-2245 -2385 0
-2241 -2386 0
-2242 -2387 0
-2243 -2388 0
-2244 -2389 0
-2245 -2390 0
-2241 -2496 0
-2242 -2497 0
-2243 -2498 0
-2244 -2499 0
-2245 -2500 0
-2241 -2501 0
-2242 -2502 0
-2243 -2503 0
-2244 -2504 0
-2245 -2505 0
-2241 -4646 0
-2242 -4647 0
-2243 -4648 0
-2244 -4649 0
-2245 -4650 0
-2246 -2271 0
-2247 -2272 0
-2248 -2273 0
-2249 -2274 0
-2250 -2275 0
-2246 -2386 0
-2247 -2387 0
-2248 -2388 0
-2249 -2389 0
-2250 -2390 0
-2246 -2391 0
-2247 -2392 0
-2248 -2393 0
-2249 -2394 0
-2250 -2395 0
-2246 -2471 0
-2247 -2472 0
-2248 -2473 0
-2249 -2474 0
-2250 -2475 0
-2246 -2506 0
-2247 -2507 0
-2248 -2508 0
-2249 -2509 0
-2250 -2510 0
-2246 -2511 0
-2247 -2512 0
-2248 -2513 0
-2249 -2514 0
-2250 -2515 0
-2246 -4656 0
-2247 -4657 0
-2248 -4658 0
-2249 -4659 0
-2250 -4660 0
-2251 -2281 0
-2252 -2282 0
-2253 -2283 0
-2254 -2284 0
-2255 -2285 0
-2251 -2391 0
-2252 -2392 0
-2253 -2393 0
-2254 -2394 0
-2255 -2395 0
-2251 -2396 0
-2252 -2397 0
-2253 -2398 0
-2254 -2399 0
-2255 -2400 0
-2251 -2476 0
-2252 -2477 0
-2253 -2478 0
-2254 -2479 0
-2255 -2480 0
-2251 -2516 0
-2252 -2517 0
-2253 -2518 0
-2254 -2519 0
-2255 -2520 0
-2251 -2521 0
-2252 -2522 0
-2253 -2523 0
-2254 -2524 0
-2255 -2525 0
-2251 -4666 0
-2252 -4667 0
-2253 -4668 0
-2254 -4669 0
-2255 -4670 0
-2256 -2276 0
-2257 -2277 0
-2258 -2278 0
-2259 -2279 0
-2260 -2280 0
-2256 -2396 0
-2257 -2397 0
-2258 -2398 0
-2259 -2399 0
-2260 -2400 0
-2256 -2401 0
-2257 -2402 0
-2258 -2403 0
-2259 -2404 0
-2260 -2405 0
-2256 -2526 0
-2257 -2527 0
-2258 -2528 0
-2259 -2529 0
-2260 -2530 0
-2256 -2531 0
-2257 -2532 0
-2258 -2533 0
-2259 -2534 0
-2260 -2535 0
-2256 -4676 0
-2257 -4677 0
-2258 -4678 0
-2259 -4679 0
-2260 -4680 0
-2261 -2286 0
-2262 -2287 0
-2263 -2288 0
-2264 -2289 0
-2265 -2290 0
-2261 -2376 0
-2262 -2377 0
-2263 -2378 0
-2264 -2379 0
-2265 -2380 0
-2261 -2401 0
-2262 -2402 0
-2263 -2403 0
-2264 -2404 0
-2265 -2405 0
-2261 -2481 0
-2262 -2482 0
-2263 -2483 0
-2264 -2484 0
-2265 -2485 0
-2261 -2536 0
-2262 -2537 0
-2263 -2538 0
-2264 -2539 0
-2265 -2540 0
-2261 -2541 0
-2262 -2542 0
-2263 -2543 0
-2264 -2544 0
-2265 -2545 0
-2261 -4626 0
-2262 -4627 0
-2263 -4628 0
-2264 -4629 0
-2265 -4630 0
-2266 -2296 0
-2267 -2297 0
-2268 -2298 0
-2269 -2299 0
-2270 -2300 0
-2266 -2491 0
-2267 -2492 0
-2268 -2493 0
-2269 -2494 0
-2270 -2495 0
-2271 -2306 0
-2272 -2307 0
-2273 -2308 0
-2274 -2309 0
-2275 -2310 0
-2271 -2471 0
-2272 -2472 0
-2273 -2473 0
-2274 -2474 0
-2275 -2475 0
-2271 -2501 0
-2272 -2502 0
-2273 -2503 0
-2274 -2504 0
-2275 -2505 0
-2276 -2326 0
-2277 -2327 0
-2278 -2328 0
-2279 -2329 0
-2280 -2330 0
-2276 -2521 0
-2277 -2522 0
-2278 -2523 0
-2279 -2524 0
-2280 -2525 0
-2281 -2341 0
-2282 -2342 0
-2283 -2343 0
-2284 -2344 0
-2285 -2345 0
-2281 -2476 0
-2282 -2477 0
-2283 -2478 0
-2284 -2479 0
-2285 -2480 0
-2281 -2526 0
-2282 -2527 0
-2283 -2528 0
-2284 -2529 0
-2285 -2530 0
-2281 -4626 0
-2282 -4627 0
-2283 -4628 0
-2284 -4629 0
-2285 -4630 0
-2286 -2336 0
-2287 -2337 0
-2288 -2338 0
-2289 -2339 0
-2290 -2340 0
-2286 -2481 0
-2287 -2482 0
-2288 -2483 0
-2289 -2484 0
-2290 -2485 0
-2286 -2531 0
-2287 -2532 0
-2288 -2533 0
-2289 -2534 0
-2290 -2535 0
-2291 -2346 0
-2292 -2347 0
-2293 -2348 0
-2294 -2349 0
-2295 -2350 0
-2291 -2466 0
-2292 -2467 0
-2293 -2468 0
-2294 -2469 0
-2295 -2470 0
-2291 -2541 0
-2292 -2542 0
-2293 -2543 0
-2294 -2544 0
-2295 -2545 0
-2296 -2351 0
-2297 -2352 0
-2298 -2353 0
-2299 -2354 0
-2300 -2355 0
-2296 -2411 0
-2297 -2412 0
-2298 -2413 0
-2299 -2414 0
-2300 -2415 0
-2296 -2461 0
-2297 -2462 0
-2298 -2463 0
-2299 -2464 0
-2300 -2465 0
-2296 -2491 0
-2297 -2492 0
-2298 -2493 0
-2299 -2494 0
-2300 -2495 0
-2301 -2306 0
-2302 -2307 0
-2303 -2308 0
-2304 -2309 0
-2305 -2310 0
-2301 -2406 0
-2302 -2407 0
-2303 -2408 0
-2304 -2409 0
-2305 -2410 0
-2301 -2416 0
-2302 -2417 0
-2303 -2418 0
-2304 -2419 0
-2305 -2420 0
-2301 -2486 0
-2302 -2487 0
-2303 -2488 0
-2304 -2489 0
-2305 -2490 0
-2306 -2411 0
-2307 -2412 0
-2308 -2413 0
-2309 -2414 0
-2310 -2415 0
-2306 -2421 0
-2307 -2422 0
-2308 -2423 0
-2309 -2424 0
-2310 -2425 0
-2306 -2501 0
-2307 -2502 0
-2308 -2503 0
-2309 -2504 0
-2310 -2505 0
-2311 -2316 0
-2312 -2317 0
-2313 -2318 0
-2314 -2319 0
-2315 -2320 0
-2311 -2416 0
-2312 -2417 0
-2313 -2418 0
-2314 -2419 0
-2315 -2420 0
-2311 -2426 0
-2312 -2427 0
-2313 -2428 0
-2314 -2429 0
-2315 -2430 0
-2311 -2496 0
-2312 -2497 0
-2313 -2498 0
-2314 -2499 0
-2315 -2500 0
-2316 -2421 0
-2317 -2422 0
-2318 -2423 0
-2319 -2424 0
-2320 -2425 0
-2316 -2431 0
-2317 -2432 0
-2318 -2433 0
-2319 -2434 0
-2320 -2435 0
-2316 -2511 0
-2317 -2512 0
-2318 -2513 0
-2319 -2514 0
-2320 -2515 0
-2321 -2326 0
-2322 -2327 0
-2323 -2328 0
-2324 -2329 0
-2325 -2330 0
-2321 -2426 0
-2322 -2427 0
-2323 -2428 0
-2324 -2429 0
-2325 -2430 0
-2321 -2436 0
-2322 -2437 0
-2323 -2438 0
-2324 -2439 0
-2325 -2440 0
-2321 -2506 0
-2322 -2507 0
-2323 -2508 0
-2324 -2509 0
-2325 -2510 0
-2326 -2431 0
-2327 -2432 0
-2328 -2433 0
-2329 -2434 0
-2330 -2435 0
-2326 -2441 0
-2327 -2442 0
-2328 -2443 0
-2329 -2444 0
-2330 -2445 0
-2326 -2521 0
-2327 -2522 0
-2328 -2523 0
-2329 -2524 0
-2330 -2525 0
-2331 -2336 0
-2332 -2337 0
-2333 -2338 0
-2334 -2339 0
-2335 -2340 0
-2331 -2436 0
-2332 -2437 0
-2333 -2438 0
-2334 -2439 0
-2335 -2440 0
-2331 -2446 0
-2332 -2447 0
-2333 -2448 0
-2334 -2449 0
-2335 -2450 0
-2331 -2516 0
-2332 -2517 0
-2333 -2518 0
-2334 -2519 0
-2335 -2520 0
-2336 -2441 0
-2337 -2442 0
-2338 -2443 0
-2339 -2444 0
-2340 -2445 0
-2336 -2451 0
-2337 -2452 0
-2338 -2453 0
-2339 -2454 0
-2340 -2455 0
-2336 -2531 0
-2337 -2532 0
-2338 -2533 0
-2339 -2534 0
-2340 -2535 0
-2341 -2346 0
-2342 -2347 0
-2343 -2348 0
-2344 -2349 0
-2345 -2350 0
-2341 -2446 0
-2342 -2447 0
-2343 -2448 0
-2344 -2449 0
-2345 -2450 0
-2341 -2456 0
-2342 -2457 0
-2343 -2458 0
-2344 -2459 0
-2345 -2460 0
-2341 -2526 0
-2342 -2527 0
-2343 -2528 0
-2344 -2529 0
-2345 -2530 0
-2346 -2451 0
-2347 -2452 0
-2348 -2453 0
-2349 -2454 0
-2350 -2455 0
-2346 -2461 0
-2347 -2462 0
-2348 -2463 0
-2349 -2464 0
-2350 -2465 0
-2346 -2541 0
-2347 -2542 0
-2348 -2543 0
-2349 -2544 0
-2350 -2545 0
-2351 -2406 0
-2352 -2407 0
-2353 -2408 0
-2354 -2409 0
-2355 -2410 0
-2351 -2456 0
-2352 -2457 0
-2353 -2458 0
-2354 -2459 0
-2355 -2460 0
-2351 -2536 0
-2352 -2537 0
-2353 -2538 0
-2354 -2539 0
-2355 -2540 0
-2356 -2376 0
-2357 -2377 0
-2358 -2378 0
-2359 -2379 0
-2360 -2380 0
-2356 -2381 0
-2357 -2382 0
-2358 -2383 0
-2359 -2384 0
-2360 -2385 0
-2361 -2386 0
-2362 -2387 0
-2363 -2388 0
-2364 -2389 0
-2365 -2390 0
-2361 -2391 0
-2362 -2392 0
-2363 -2393 0
-2364 -2394 0
-2365 -2395 0
-2366 -2391 0
-2367 -2392 0
-2368 -2393 0
-2369 -2394 0
-2370 -2395 0
-2366 -2396 0
-2367 -2397 0
-2368 -2398 0
-2369 -2399 0
-2370 -2400 0
-2371 -2376 0
-2372 -2377 0
-2373 -2378 0
-2374 -2379 0
-2375 -2380 0
-2371 -2401 0
-2372 -2402 0
-2373 -2403 0
-2374 -2404 0
-2375 -2405 0
-2376 -2486 0
-2377 -2487 0
-2378 -2488 0
-2379 -2489 0
-2380 -2490 0
-2376 -2541 0
-2377 -2542 0
-2378 -2543 0
-2379 -2544 0
-2380 -2545 0
-2381 -2491 0
-2382 -2492 0
-2383 -2493 0
-2384 -2494 0
-2385 -2495 0
-2381 -2496 0
-2382 -2497 0
-2383 -2498 0
-2384 -2499 0
-2385 -2500 0
-2386 -2501 0
-2387 -2502 0
-2388 -2503 0
-2389 -2504 0
-2390 -2505 0
-2386 -2506 0
-2387 -2507 0
-2388 -2508 0
-2389 -2509 0
-2390 -2510 0
-2391 -2511 0
-2392 -2512 0
-2393 -2513 0
-2394 -2514 0
-2395 -2515 0
-2391 -2516 0
-2392 -2517 0
-2393 -2518 0
-2394 -2519 0
-2395 -2520 0
-2396 -2521 0
-2397 -2522 0
-2398 -2523 0
-2399 -2524 0
-2400 -2525 0
-2396 -2526 0
-2397 -2527 0
-2398 -2528 0
-2399 -2529 0
-2400 -2530 0
-2401 -2531 0
-2402 -2532 0
-2403 -2533 0
-2404 -2534 0
-2405 -2535 0
-2401 -2536 0
-2402 -2537 0
-2403 -2538 0
-2404 -2539 0
-2405 -2540 0
-2406 -2491 0
-2407 -2492 0
-2408 -2493 0
-2409 -2494 0
-2410 -2495 0
-2406 -4636 0
-2407 -4637 0
-2408 -4638 0
-2409 -4639 0
-2410 -4640 0
-2411 -2486 0
-2412 -2487 0
-2413 -2488 0
-2414 -2489 0
-2415 -2490 0
-2416 -2501 0
-2417 -2502 0
-2418 -2503 0
-2419 -2504 0
-2420 -2505 0
-2416 -4646 0
-2417 -4647 0
-2418 -4648 0
-2419 -4649 0
-2420 -4650 0
-2421 -2471 0
-2422 -2472 0
-2423 -2473 0
-2424 -2474 0
-2425 -2475 0
-2421 -2496 0
-2422 -2497 0
-2423 -2498 0
-2424 -2499 0
-2425 -2500 0
-2426 -2511 0
-2427 -2512 0
-2428 -2513 0
-2429 -2514 0
-2430 -2515 0
-2426 -4656 0
-2427 -4657 0
-2428 -4658 0
-2429 -4659 0
-2430 -4660 0
-2431 -2506 0
-2432 -2507 0
-2433 -2508 0
-2434 -2509 0
-2435 -2510 0
-2436 -2521 0
-2437 -2522 0
-2438 -2523 0
-2439 -2524 0
-2440 -2525 0
-2436 -4666 0
-2437 -4667 0
-2438 -4668 0
-2439 -4669 0
-2440 -4670 0
-2441 -2516 0
-2442 -2517 0
-2443 -2518 0
-2444 -2519 0
-2445 -2520 0
-2446 -2476 0
-2447 -2477 0
-2448 -2478 0
-2449 -2479 0
-2450 -2480 0
-2446 -2531 0
-2447 -2532 0
-2448 -2533 0
-2449 -2534 0
-2450 -2535 0
-2446 -4676 0
-2447 -4677 0
-2448 -4678 0
-2449 -4679 0
-2450 -4680 0
-2451 -2481 0
-2452 -2482 0
-2453 -2483 0
-2454 -2484 0
-2455 -2485 0
-2451 -2526 0
-2452 -2527 0
-2453 -2528 0
-2454 -2529 0
-2455 -2530 0
-2456 -2541 0
-2457 -2542 0
-2458 -2543 0
-2459 -2544 0
-2460 -2545 0
-2456 -4626 0
-2457 -4627 0
-2458 -4628 0
-2459 -4629 0
-2460 -4630 0
-2461 -2466 0
-2462 -2467 0
-2463 -2468 0
-2464 -2469 0
-2465 -2470 0
-2461 -2536 0
-2462 -2537 0
-2463 -2538 0
-2464 -2539 0
-2465 -2540 0
-2466 -2491 0
-2467 -2492 0
-2468 -2493 0
-2469 -2494 0
-2470 -2495 0
-2471 -2511 0
-2472 -2512 0
-2473 -2513 0
-2474 -2514 0
-2475 -2515 0
-2476 -2516 0
-2477 -2517 0
-2478 -2518 0
-2479 -2519 0
-2480 -2520 0
-2476 -4676 0
-2477 -4677 0
-2478 -4678 0
-2479 -4679 0
-2480 -4680 0
-2481 -2541 0
-2482 -2542 0
-2483 -2543 0
-2484 -2544 0
-2485 -2545 0
-2546 -3191 0
-2547 -3192 0
-2548 -3193 0
-2549 -3194 0
-2550 -3195 0
-2546 -3231 0
-2547 -3232 0
-2548 -3233 0
-2549 -3234 0
-2550 -3235 0
-2546 -3251 0
-2547 -3252 0
-2548 -3253 0
-2549 -3254 0
-2550 -3255 0
-2546 -3311 0
-2547 -3312 0
-2548 -3313 0
-2549 -3314 0
-2550 -3315 0
-2546 -3411 0
-2547 -3412 0
-2548 -3413 0
-2549 -3414 0
-2550 -3415 0
-2546 -3451 0
-2547 -3452 0
-2548 -3453 0
-2549 -3454 0
-2550 -3455 0
-2546 -3481 0
-2547 -3482 0
-2548 -3483 0
-2549 -3484 0
-2550 -3485 0
-2546 -3531 0
-2547 -3532 0
-2548 -3533 0
-2549 -3534 0
-2550 -3535 0
-2546 -3536 0
-2547 -3537 0
-2548 -3538 0
-2549 -3539 0
-2550 -3540 0
-2546 -3546 0
-2547 -3547 0
-2548 -3548 0
-2549 -3549 0
-2550 -3550 0
-2551 -3141 0
-2552 -3142 0
-2553 -3143 0
-2554 -3144 0
-2555 -3145 0
-2551 -3146 0
-2552 -3147 0
-2553 -3148 0
-2554 -3149 0
-2555 -3150 0
-2551 -3176 0
-2552 -3177 0
-2553 -3178 0
-2554 -3179 0
-2555 -3180 0
-2551 -3196 0
-2552 -3197 0
-2553 -3198 0
-2554 -3199 0
-2555 -3200 0
-2551 -3236 0
-2552 -3237 0
-2553 -3238 0
-2554 -3239 0
-2555 -3240 0
-2551 -3256 0
-2552 -3257 0
-2553 -3258 0
-2554 -3259 0
-2555 -3260 0
-2551 -3321 0
-2552 -3322 0
-2553 -3323 0
-2554 -3324 0
-2555 -3325 0
-2551 -3381 0
-2552 -3382 0
-2553 -3383 0
-2554 -3384 0
-2555 -3385 0
-2551 -3416 0
-2552 -3417 0
-2553 -3418 0
-2554 -3419 0
-2555 -3420 0
-2551 -3456 0
-2552 -3457 0
-2553 -3458 0
-2554 -3459 0
-2555 -3460 0
-2551 -3476 0
-2552 -3477 0
-2553 -3478 0
-2554 -3479 0
-2555 -3480 0
-2551 -3486 0
-2552 -3487 0
-2553 -3488 0
-2554 -3489 0
-2555 -3490 0
-2551 -3541 0
-2552 -3542 0
-2553 -3543 0
-2554 -3544 0
-2555 -3545 0
-2551 -3551 0
-2552 -3552 0
-2553 -3553 0
-2554 -3554 0
-2555 -3555 0
-2551 -3626 0
-2552 -3627 0
-2553 -3628 0
-2554 -3629 0
-2555 -3630 0
-2556 -3151 0
-2557 -3152 0
-2558 -3153 0
-2559 -3154 0
-2560 -3155 0
-2556 -3156 0
-2557 -3157 0
-2558 -3158 0
-2559 -3159 0
-2560 -3160 0
-2556 -3176 0
-2557 -3177 0
-2558 -3178 0
-2559 -3179 0
-2560 -3180 0
-2556 -3201 0
-2557 -3202 0
-2558 -3203 0
-2559 -3204 0
-2560 -3205 0
-2556 -3241 0
-2557 -3242 0
-2558 -3243 0
-2559 -3244 0
-2560 -3245 0
-2556 -3261 0
-2557 -3262 0
-2558 -3263 0
-2559 -3264 0
-2560 -3265 0
-2556 -3276 0
-2557 -3277 0
-2558 -3278 0
-2559 -3279 0
-2560 -3280 0
-2556 -3336 0
-2557 -3337 0
-2558 -3338 0
-2559 -3339 0
-2560 -3340 0
-2556 -3396 0
-2557 -3397 0
-2558 -3398 0
-2559 -3399 0
-2560 -3400 0
-2556 -3401 0
-2557 -3402 0
-2558 -3403 0
-2559 -3404 0
-2560 -3405 0
-2556 -3421 0
-2557 -3422 0
-2558 -3423 0
-2559 -3424 0
-2560 -3425 0
-2556 -3481 0
-2557 -3482 0
-2558 -3483 0
-2559 -3484 0
-2560 -3485 0
-2556 -3491 0
-2557 -3492 0
-2558 -3493 0
-2559 -3494 0
-2560 -3495 0
-2556 -3551 0
-2557 -3552 0
-2558 -3553 0
-2559 -3554 0
-2560 -3555 0
-2556 -3561 0
-2557 -3562 0
-2558 -3563 0
-2559 -3564 0
-2560 -3565 0
-2561 -3206 0
-2562 -3207 0
-2563 -3208 0
-2564 -3209 0
-2565 -3210 0
-2561 -3246 0
-2562 -3247 0
-2563 -3248 0
-2564 -3249 0
-2565 -3250 0
-2561 -3266 0
-2562 -3267 0
-2563 -3268 0
-2564 -3269 0
-2565 -3270 0
-2561 -3286 0
-2562 -3287 0
-2563 -3288 0
-2564 -3289 0
-2565 -3290 0
-2561 -3406 0
-2562 -3407 0
-2563 -3408 0
-2564 -3409 0
-2565 -3410 0
-2561 -3426 0
-2562 -3427 0
-2563 -3428 0
-2564 -3429 0
-2565 -3430 0
-2561 -3486 0
-2562 -3487 0
-2563 -3488 0
-2564 -3489 0
-2565 -3490 0
-2561 -3496 0
-2562 -3497 0
-2563 -3498 0
-2564 -3499 0
-2565 -3500 0
-2561 -3556 0
-2562 -3557 0
-2563 -3558 0
-2564 -3559 0
-2565 -3560 0
-2561 -3566 0
-2562 -3567 0
-2563 -3568 0
-2564 -3569 0
-2565 -3570 0
-2566 -3201 0
-2567 -3202 0
-2568 -3203 0
-2569 -3204 0
-2570 -3205 0
-2566 -3211 0
-2567 -3212 0
-2568 -3213 0
-2569 -3214 0
-2570 -3215 0
-2566 -3251 0
-2567 -3252 0
-2568 -3253 0
-2569 -3254 0
-2570 -3255 0
-2566 -3351 0
-2567 -3352 0
-2568 -3353 0
-2569 -3354 0
-2570 -3355 0
-2566 -3411 0
-2567 -3412 0
-2568 -3413 0
-2569 -3414 0
-2570 -3415 0
-2566 -3431 0
-2567 -3432 0
-2568 -3433 0
-2569 -3434 0
-2570 -3435 0
-2566 -3491 0
-2567 -3492 0
-2568 -3493 0
-2569 -3494 0
-2570 -3495 0
-2566 -3501 0
-2567 -3502 0
-2568 -3503 0
-2569 -3504 0
-2570 -3505 0
-2566 -3566 0
-2567 -3567 0
-2568 -3568 0
-2569 -3569 0
-2570 -3570 0
-2566 -3576 0
-2567 -3577 0
-2568 -3578 0
-2569 -3579 0
-2570 -3580 0
-2571 -3161 0
-2572 -3162 0
-2573 -3163 0
-2574 -3164 0
-2575 -3165 0
-2571 -3166 0
-2572 -3167 0
-2573 -3168 0
-2574 -3169 0
-2575 -3170 0
-2571 -3206 0
-2572 -3207 0
-2573 -3208 0
-2574 -3209 0
-2575 -3210 0
-2571 -3216 0
-2572 -3217 0
-2573 -3218 0
-2574 -3219 0
-2575 -3220 0
-2571 -3256 0
-2572 -3257 0
-2573 -3258 0
-2574 -3259 0
-2575 -3260 0
-2571 -3301 0
-2572 -3302 0
-2573 -3303 0
-2574 -3304 0
-2575 -3305 0
-2571 -3361 0
-2572 -3362 0
-2573 -3363 0
-2574 -3364 0
-2575 -3365 0
-2571 -3416 0
-2572 -3417 0
-2573 -3418 0
-2574 -3419 0
-2575 -3420 0
-2571 -3436 0
-2572 -3437 0
-2573 -3438 0
-2574 -3439 0
-2575 -3440 0
-2571 -3496 0
-2572 -3497 0
-2573 -3498 0
-2574 -3499 0
-2575 -3500 0
-2571 -3506 0
-2572 -3507 0
-2573 -3508 0
-2574 -3509 0
-2575 -3510 0
-2571 -3571 0
-2572 -3572 0
-2573 -3573 0
-2574 -3574 0
-2575 -3575 0
-2571 -3581 0
-2572 -3582 0
-2573 -3583 0
-2574 -3584 0
-2575 -3585 0
-2571 -3631 0
-2572 -3632 0
-2573 -3633 0
-2574 -3634 0
-2575 -3635 0
-2576 -3116 0
-2577 -3117 0
-2578 -3118 0
-2579 -3119 0
-2580 -3120 0
-2576 -3166 0
-2577 -3167 0
-2578 -3168 0
-2579 -3169 0
-2580 -3170 0
-2576 -3181 0
-2577 -3182 0
-2578 -3183 0
-2579 -3184 0
-2580 -3185 0
-2576 -3221 0
-2577 -3222 0
-2578 -3223 0
-2579 -3224 0
-2580 -3225 0
-2576 -3261 0
-2577 -3262 0
-2578 -3263 0
-2579 -3264 0
-2580 -3265 0
-2576 -3316 0
-2577 -3317 0
-2578 -3318 0
-2579 -3319 0
-2580 -3320 0
-2576 -3376 0
-2577 -3377 0
-2578 -3378 0
-2579 -3379 0
-2580 -3380 0
-2576 -3421 0
-2577 -3422 0
-2578 -3423 0
-2579 -3424 0
-2580 -3425 0
-2576 -3441 0
-2577 -3442 0
-2578 -3443 0
-2579 -3444 0
-2580 -3445 0
-2576 -3501 0
-2577 -3502 0
-2578 -3503 0
-2579 -3504 0
-2580 -3505 0
-2576 -3511 0
-2577 -3512 0
-2578 -3513 0
-2579 -3514 0
-2580 -3515 0
-2576 -3581 0
-2577 -3582 0
-2578 -3583 0
-2579 -3584 0
-2580 -3585 0
-2576 -3591 0
-2577 -3592 0
-2578 -3593 0
-2579 -3594 0
-2580 -3595 0
-2576 -3636 0
-2577 -3637 0
-2578 -3638 0
-2579 -3639 0
-2580 -3640 0
-2581 -3186 0
-2582 -3187 0
-2583 -3188 0
-2584 -3189 0
-2585 -3190 0
-2581 -3226 0
-2582 -3227 0
-2583 -3228 0
-2584 -3229 0
-2585 -3230 0
-2581 -3266 0
-2582 -3267 0
-2583 -3268 0
-2584 -3269 0
-2585 -3270 0
-2581 -3326 0
-2582 -3327 0
-2583 -3328 0
-2584 -3329 0
-2585 -3330 0
-2581 -3426 0
-2582 -3427 0
-2583 -3428 0
-2584 -3429 0
-2585 -3430 0
-2581 -3446 0
-2582 -3447 0
-2583 -3448 0
-2584 -3449 0
-2585 -3450 0
-2581 -3506 0
-2582 -3507 0
-2583 -3508 0
-2584 -3509 0
-2585 -3510 0
-2581 -3516 0
-2582 -3517 0
-2583 -3518 0
-2584 -3519 0
-2585 -3520 0
-2581 -3586 0
-2582 -3587 0
-2583 -3588 0
-2584 -3589 0
-2585 -3590 0
-2581 -3596 0
-2582 -3597 0
-2583 -3598 0
-2584 -3599 0
-2585 -3600 0
-2586 -3181 0
-2587 -3182 0
-2588 -3183 0
-2589 -3184 0
-2590 -3185 0
-2586 -3211 0
-2587 -3212 0
-2588 -3213 0
-2589 -3214 0
-2590 -3215 0
-2586 -3231 0
-2587 -3232 0
-2588 -3233 0
-2589 -3234 0
-2590 -3235 0
-2586 -3391 0
-2587 -3392 0
-2588 -3393 0
-2589 -3394 0
-2590 -3395 0
-2586 -3431 0
-2587 -3432 0
-2588 -3433 0
-2589 -3434 0
-2590 -3435 0
-2586 -3451 0
-2587 -3452 0
-2588 -3453 0
-2589 -3454 0
-2590 -3455 0
-2586 -3511 0
-2587 -3512 0
-2588 -3513 0
-2589 -3514 0
-2590 -3515 0
-2586 -3521 0
-2587 -3522 0
-2588 -3523 0
-2589 -3524 0
-2590 -3525 0
-2586 -3596 0
-2587 -3597 0
-2588 -3598 0
-2589 -3599 0
-2590 -3600 0
-2586 -3606 0
-2587 -3607 0
-2588 -3608 0
-2589 -3609 0
-2590 -3610 0
-2591 -3121 0
-2592 -3122 0
-2593 -3123 0
-2594 -3124 0
-2595 -3125 0
-2591 -3126 0
-2592 -3127 0
-2593 -3128 0
-2594 -3129 0
-2595 -3130 0
-2591 -3171 0
-2592 -3172 0
-2593 -3173 0
-2594 -3174 0
-2595 -3175 0
-2591 -3186 0
-2592 -3187 0
-2593 -3188 0
-2594 -3189 0
-2595 -3190 0
-2591 -3216 0
-2592 -3217 0
-2593 -3218 0
-2594 -3219 0
-2595 -3220 0
-2591 -3236 0
-2592 -3237 0
-2593 -3238 0
-2594 -3239 0
-2595 -3240 0
-2591 -3271 0
-2592 -3272 0
-2593 -3273 0
-2594 -3274 0
-2595 -3275 0
-2591 -3281 0
-2592 -3282 0
-2593 -3283 0
-2594 -3284 0
-2595 -3285 0
-2591 -3341 0
-2592 -3342 0
-2593 -3343 0
-2594 -3344 0
-2595 -3345 0
-2591 -3436 0
-2592 -3437 0
-2593 -3438 0
-2594 -3439 0
-2595 -3440 0
-2591 -3456 0
-2592 -3457 0
-2593 -3458 0
-2594 -3459 0
-2595 -3460 0
-2591 -3516 0
-2592 -3517 0
-2593 -3518 0
-2594 -3519 0
-2595 -3520 0
-2591 -3526 0
-2592 -3527 0
-2593 -3528 0
-2594 -3529 0
-2595 -3530 0
-2591 -3601 0
-2592 -3602 0
-2593 -3603 0
-2594 -3604 0
-2595 -3605 0
-2591 -3611 0
-2592 -3612 0
-2593 -3613 0
-2594 -3614 0
-2595 -3615 0
-2596 -3131 0
-2597 -3132 0
-2598 -3133 0
-2599 -3134 0
-2600 -3135 0
-2596 -3136 0
-2597 -3137 0
-2598 -3138 0
-2599 -3139 0
-2600 -3140 0
-2596 -3171 0
-2597 -3172 0
-2598 -3173 0
-2599 -3174 0
-2600 -3175 0
-2596 -3191 0
-2597 -3192 0
-2598 -3193 0
-2599 -3194 0
-2600 -3195 0
-2596 -3221 0
-2597 -3222 0
-2598 -3223 0
-2599 -3224 0
-2600 -3225 0
-2596 -3241 0
-2597 -3242 0
-2598 -3243 0
-2599 -3244 0
-2600 -3245 0
-2596 -3296 0
-2597 -3297 0
-2598 -3298 0
-2599 -3299 0
-2600 -3300 0
-2596 -3356 0
-2597 -3357 0
-2598 -3358 0
-2599 -3359 0
-2600 -3360 0
-2596 -3401 0
-2597 -3402 0
-2598 -3403 0
-2599 -3404 0
-2600 -3405 0
-2596 -3441 0
-2597 -3442 0
-2598 -3443 0
-2599 -3444 0
-2600 -3445 0
-2596 -3521 0
-2597 -3522 0
-2598 -3523 0
-2599 -3524 0
-2600 -3525 0
-2596 -3531 0
-2597 -3532 0
-2598 -3533 0
-2599 -3534 0
-2600 -3535 0
-2596 -3611 0
-2597 -3612 0
-2598 -3613 0
-2599 -3614 0
-2600 -3615 0
-2596 -3621 0
-2597 -3622 0
-2598 -3623 0
-2599 -3624 0
-2600 -3625 0
-2596 -3641 0
-2597 -3642 0
-2598 -3643 0
-2599 -3644 0
-2600 -3645 0
-2601 -3196 0
-2602 -3197 0
-2603 -3198 0
-2604 -3199 0
-2605 -3200 0
-2601 -3226 0
-2602 -3227 0
-2603 -3228 0
-2604 -3229 0
-2605 -3230 0
-2601 -3246 0
-2602 -3247 0
-2603 -3248 0
-2604 -3249 0
-2605 -3250 0
-2601 -3366 0
-2602 -3367 0
-2603 -3368 0
-2604 -3369 0
-2605 -3370 0
-2601 -3406 0
-2602 -3407 0
-2603 -3408 0
-2604 -3409 0
-2605 -3410 0
-2601 -3446 0
-2602 -3447 0
-2603 -3448 0
-2604 -3449 0
-2605 -3450 0
-2601 -3476 0
-2602 -3477 0
-2603 -3478 0
-2604 -3479 0
-2605 -3480 0
-2601 -3526 0
-2602 -3527 0
-2603 -3528 0
-2604 -3529 0
-2605 -3530 0
-2601 -3536 0
-2602 -3537 0
-2603 -3538 0
-2604 -3539 0
-2605 -3540 0
-2601 -3616 0
-2602 -3617 0
-2603 -3618 0
-2604 -3619 0
-2605 -3620 0
-2606 -3006 0
-2607 -3007 0
-2608 -3008 0
-2609 -3009 0
-2610 -3010 0
-2606 -3011 0
-2607 -3012 0
-2608 -3013 0
-2609 -3014 0
-2610 -3015 0
-2606 -3066 0
-2607 -3067 0
-2608 -3068 0
-2609 -3069 0
-2610 -3070 0
-2606 -3071 0
-2607 -3072 0
-2608 -3073 0
-2609 -3074 0
-2610 -3075 0
-2606 -3171 0
-2607 -3172 0
-2608 -3173 0
-2609 -3174 0
-2610 -3175 0
-2606 -3176 0
-2607 -3177 0
-2608 -3178 0
-2609 -3179 0
-2610 -3180 0
-2606 -3461 0
-2607 -3462 0
-2608 -3463 0
-2609 -3464 0
-2610 -3465 0
-2606 -3471 0
-2607 -3472 0
-2608 -3473 0
-2609 -3474 0
-2610 -3475 0
-2606 -3481 0
-2607 -3482 0
-2608 -3483 0
-2609 -3484 0
-2610 -3485 0
-2606 -3526 0
-2607 -3527 0
-2608 -3528 0
-2609 -3529 0
-2610 -3530 0
-2606 -3626 0
-2607 -3627 0
-2608 -3628 0
-2609 -3629 0
-2610 -3630 0
-2606 -3641 0
-2607 -3642 0
-2608 -3643 0
-2609 -3644 0
-2610 -3645 0
-2611 -3026 0
-2612 -3027 0
-2613 -3028 0
-2614 -3029 0
-2615 -3030 0
-2611 -3031 0
-2612 -3032 0
-2613 -3033 0
-2614 -3034 0
-2615 -3035 0
-2611 -3086 0
-2612 -3087 0
-2613 -3088 0
-2614 -3089 0
-2615 -3090 0
-2611 -3091 0
-2612 -3092 0
-2613 -3093 0
-2614 -3094 0
-2615 -3095 0
-2611 -3166 0
-2612 -3167 0
-2613 -3168 0
-2614 -3169 0
-2615 -3170 0
-2611 -3176 0
-2612 -3177 0
-2613 -3178 0
-2614 -3179 0
-2615 -3180 0
-2611 -3461 0
-2612 -3462 0
-2613 -3463 0
-2614 -3464 0
-2615 -3465 0
-2611 -3466 0
-2612 -3467 0
-2613 -3468 0
-2614 -3469 0
-2615 -3470 0
-2611 -3486 0
-2612 -3487 0
-2613 -3488 0
-2614 -3489 0
-2615 -3490 0
-2611 -3501 0
-2612 -3502 0
-2613 -3503 0
-2614 -3504 0
-2615 -3505 0
-2611 -3631 0
-2612 -3632 0
-2613 -3633 0
-2614 -3634 0
-2615 -3635 0
-2616 -2986 0
-2617 -2987 0
-2618 -2988 0
-2619 -2989 0
-2620 -2990 0
-2616 -2991 0
-2617 -2992 0
-2618 -2993 0
-2619 -2994 0
-2620 -2995 0
-2616 -3046 0
-2617 -3047 0
-2618 -3048 0
-2619 -3049 0
-2620 -3050 0
-2616 -3051 0
-2617 -3052 0
-2618 -3053 0
-2619 -3054 0
-2620 -3055 0
-2616 -3166 0
-2617 -3167 0
-2618 -3168 0
-2619 -3169 0
-2620 -3170 0
-2616 -3171 0
-2617 -3172 0
-2618 -3173 0
-2619 -3174 0
-2620 -3175 0
-2616 -3466 0
-2617 -3467 0
-2618 -3468 0
-2619 -3469 0
-2620 -3470 0
-2616 -3471 0
-2617 -3472 0
-2618 -3473 0
-2619 -3474 0
-2620 -3475 0
-2616 -3506 0
-2617 -3507 0
-2618 -3508 0
-2619 -3509 0
-2620 -3510 0
-2616 -3521 0
-2617 -3522 0
-2618 -3523 0
-2619 -3524 0
-2620 -3525 0
-2616 -3636 0
-2617 -3637 0
-2618 -3638 0
-2619 -3639 0
-2620 -3640 0
-2621 -2946 0
-2622 -2947 0
-2623 -2948 0
-2624 -2949 0
-2625 -2950 0
-2621 -3001 0
-2622 -3002 0
-2623 -3003 0
-2624 -3004 0
-2625 -3005 0
-2621 -3111 0
-2622 -3112 0
-2623 -3113 0
-2624 -3114 0
-2625 -3115 0
-2621 -3151 0
-2622 -3152 0
-2623 -3153 0
-2624 -3154 0
-2625 -3155 0
-2621 -3306 0
-2622 -3307 0
-2623 -3308 0
-2624 -3309 0
-2625 -3310 0
-2621 -3376 0
-2622 -3377 0
-2623 -3378 0
-2624 -3379 0
-2625 -3380 0
-2621 -3551 0
-2622 -3552 0
-2623 -3553 0
-2624 -3554 0
-2625 -3555 0
-2621 -3616 0
-2622 -3617 0
-2623 -3618 0
-2624 -3619 0
-2625 -3620 0
-2621 -3666 0
-2622 -3667 0
-2623 -3668 0
-2624 -3669 0
-2625 -3670 0
-2621 -3671 0
-2622 -3672 0
-2623 -3673 0
-2624 -3674 0
-2625 -3675 0
-2626 -2971 0
-2627 -2972 0
-2628 -2973 0
-2629 -2974 0
-2630 -2975 0
-2626 -3036 0
-2627 -3037 0
-2628 -3038 0
-2629 -3039 0
-2630 -3040 0
-2626 -3111 0
-2627 -3112 0
-2628 -3113 0
-2629 -3114 0
-2630 -3115 0
-2626 -3146 0
-2627 -3147 0
-2628 -3148 0
-2629 -3149 0
-2630 -3150 0
-2626 -3271 0
-2627 -3272 0
-2628 -3273 0
-2629 -3274 0
-2630 -3275 0
-2626 -3291 0
-2627 -3292 0
-2628 -3293 0
-2629 -3294 0
-2630 -3295 0
-2626 -3341 0
-2627 -3342 0
-2628 -3343 0
-2629 -3344 0
-2630 -3345 0
-2626 -3551 0
-2627 -3552 0
-2628 -3553 0
-2629 -3554 0
-2630 -3555 0
-2626 -3576 0
-2627 -3577 0
-2628 -3578 0
-2629 -3579 0
-2630 -3580 0
-2626 -3651 0
-2627 -3652 0
-2628 -3653 0
-2629 -3654 0
-2630 -3655 0
-2626 -3686 0
-2627 -3687 0
-2628 -3688 0
-2629 -3689 0
-2630 -3690 0
-2626 -3691 0
-2627 -3692 0
-2628 -3693 0
-2629 -3694 0
-2630 -3695 0
-2631 -2966 0
-2632 -2967 0
-2633 -2968 0
-2634 -2969 0
-2635 -2970 0
-2631 -3021 0
-2632 -3022 0
-2633 -3023 0
-2634 -3024 0
-2635 -3025 0
-2631 -3101 0
-2632 -3102 0
-2633 -3103 0
-2634 -3104 0
-2635 -3105 0
-2631 -3296 0
-2632 -3297 0
-2633 -3298 0
-2634 -3299 0
-2635 -3300 0
-2631 -3346 0
-2632 -3347 0
-2633 -3348 0
-2634 -3349 0
-2635 -3350 0
-2631 -3556 0
-2632 -3557 0
-2633 -3558 0
-2634 -3559 0
-2635 -3560 0
-2631 -3581 0
-2632 -3582 0
-2633 -3583 0
-2634 -3584 0
-2635 -3585 0
-2631 -3646 0
-2632 -3647 0
-2633 -3648 0
-2634 -3649 0
-2635 -3650 0
-2631 -3696 0
-2632 -3697 0
-2633 -3698 0
-2634 -3699 0
-2635 -3700 0
-2631 -3701 0
-2632 -3702 0
-2633 -3703 0
-2634 -3704 0
-2635 -3705 0
-2636 -2931 0
-2637 -2932 0
-2638 -2933 0
-2639 -2934 0
-2640 -2935 0
-2636 -2996 0
-2637 -2997 0
-2638 -2998 0
-2639 -2999 0
-2640 -3000 0
-2636 -3101 0
-2637 -3102 0
-2638 -3103 0
-2639 -3104 0
-2640 -3105 0
-2636 -3331 0
-2637 -3332 0
-2638 -3333 0
-2639 -3334 0
-2640 -3335 0
-2636 -3381 0
-2637 -3382 0
-2638 -3383 0
-2639 -3384 0
-2640 -3385 0
-2636 -3581 0
-2637 -3582 0
-2638 -3583 0
-2639 -3584 0
-2640 -3585 0
-2636 -3606 0
-2637 -3607 0
-2638 -3608 0
-2639 -3609 0
-2640 -3610 0
-2636 -3661 0
-2637 -3662 0
-2638 -3663 0
-2639 -3664 0
-2640 -3665 0
-2636 -3716 0
-2637 -3717 0
-2638 -3718 0
-2639 -3719 0
-2640 -3720 0
-2636 -3721 0
-2637 -3722 0
-2638 -3723 0
-2639 -3724 0
-2640 -3725 0
-2641 -2926 0
-2642 -2927 0
-2643 -2928 0
-2644 -2929 0
-2645 -2930 0
-2641 -2981 0
-2642 -2982 0
-2643 -2983 0
-2644 -2984 0
-2645 -2985 0
-2641 -3106 0
-2642 -3107 0
-2643 -3108 0
-2644 -3109 0
-2645 -3110 0
-2641 -3131 0
-2642 -3132 0
-2643 -3133 0
-2644 -3134 0
-2645 -3135 0
-2641 -3276 0
-2642 -3277 0
-2643 -3278 0
-2644 -3279 0
-2645 -3280 0
-2641 -3336 0
-2642 -3337 0
-2643 -3338 0
-2644 -3339 0
-2645 -3340 0
-2641 -3386 0
-2642 -3387 0
-2643 -3388 0
-2644 -3389 0
-2645 -3390 0
-2641 -3586 0
-2642 -3587 0
-2643 -3588 0
-2644 -3589 0
-2645 -3590 0
-2641 -3611 0
-2642 -3612 0
-2643 -3613 0
-2644 -3614 0
-2645 -3615 0
-2641 -3656 0
-2642 -3657 0
-2643 -3658 0
-2644 -3659 0
-2645 -3660 0
-2641 -3726 0
-2642 -3727 0
-2643 -3728 0
-2644 -3729 0
-2645 -3730 0
-2641 -3731 0
-2642 -3732 0
-2643 -3733 0
-2644 -3734 0
-2645 -3735 0
-2646 -2951 0
-2647 -2952 0
-2648 -2953 0
-2649 -2954 0
-2650 -2955 0
-2646 -3016 0
-2647 -3017 0
-2648 -3018 0
-2649 -3019 0
-2650 -3020 0
-2646 -3106 0
-2647 -3107 0
-2648 -3108 0
-2649 -3109 0
-2650 -3110 0
-2646 -3126 0
-2647 -3127 0
-2648 -3128 0
-2649 -3129 0
-2650 -3130 0
-2646 -3301 0
-2647 -3302 0
-2648 -3303 0
-2649 -3304 0
-2650 -3305 0
-2646 -3371 0
-2647 -3372 0
-2648 -3373 0
-2649 -3374 0
-2650 -3375 0
-2646 -3546 0
-2647 -3547 0
-2648 -3548 0
-2649 -3549 0
-2650 -3550 0
-2646 -3611 0
-2647 -3612 0
-2648 -3613 0
-2649 -3614 0
-2650 -3615 0
-2646 -3746 0
-2647 -3747 0
-2648 -3748 0
-2649 -3749 0
-2650 -3750 0
-2646 -3751 0
-2647 -3752 0
-2648 -3753 0
-2649 -3754 0
-2650 -3755 0
-2651 -2946 0
-2652 -2947 0
-2653 -2948 0
-2654 -2949 0
-2655 -2950 0
-2651 -2961 0
-2652 -2962 0
-2653 -2963 0
-2654 -2964 0
-2655 -2965 0
-2651 -3066 0
-2652 -3067 0
-2653 -3068 0
-2654 -3069 0
-2655 -3070 0
-2651 -3081 0
-2652 -3082 0
-2653 -3083 0
-2654 -3084 0
-2655 -3085 0
-2651 -3416 0
-2652 -3417 0
-2653 -3418 0
-2654 -3419 0
-2655 -3420 0
-2651 -3451 0
-2652 -3452 0
-2653 -3453 0
-2654 -3454 0
-2655 -3455 0
-2651 -3666 0
-2652 -3667 0
-2653 -3668 0
-2654 -3669 0
-2655 -3670 0
-2656 -2956 0
-2657 -2957 0
-2658 -2958 0
-2659 -2959 0
-2660 -2960 0
-2656 -2971 0
-2657 -2972 0
-2658 -2973 0
-2659 -2974 0
-2660 -2975 0
-2656 -3076 0
-2657 -3077 0
-2658 -3078 0
-2659 -3079 0
-2660 -3080 0
-2656 -3091 0
-2657 -3092 0
-2658 -3093 0
-2659 -3094 0
-2660 -3095 0
-2656 -3401 0
-2657 -3402 0
-2658 -3403 0
-2659 -3404 0
-2660 -3405 0
-2656 -3426 0
-2657 -3427 0
-2658 -3428 0
-2659 -3429 0
-2660 -3430 0
-2656 -3691 0
-2657 -3692 0
-2658 -3693 0
-2659 -3694 0
-2660 -3695 0
-2661 -2921 0
-2662 -2922 0
-2663 -2923 0
-2664 -2924 0
-2665 -2925 0
-2661 -2966 0
-2662 -2967 0
-2663 -2968 0
-2664 -2969 0
-2665 -2970 0
-2661 -3041 0
-2662 -3042 0
-2663 -3043 0
-2664 -3044 0
-2665 -3045 0
-2661 -3086 0
-2662 -3087 0
-2663 -3088 0
-2664 -3089 0
-2665 -3090 0
-2661 -3411 0
-2662 -3412 0
-2663 -3413 0
-2664 -3414 0
-2665 -3415 0
-2661 -3436 0
-2662 -3437 0
-2663 -3438 0
-2664 -3439 0
-2665 -3440 0
-2661 -3696 0
-2662 -3697 0
-2663 -3698 0
-2664 -3699 0
-2665 -3700 0
-2666 -2931 0
-2667 -2932 0
-2668 -2933 0
-2669 -2934 0
-2670 -2935 0
-2666 -2976 0
-2667 -2977 0
-2668 -2978 0
-2669 -2979 0
-2670 -2980 0
-2666 -3051 0
-2667 -3052 0
-2668 -3053 0
-2669 -3054 0
-2670 -3055 0
-2666 -3096 0
-2667 -3097 0
-2668 -3098 0
-2669 -3099 0
-2670 -3100 0
-2666 -3421 0
-2667 -3422 0
-2668 -3423 0
-2669 -3424 0
-2670 -3425 0
-2666 -3446 0
-2667 -3447 0
-2668 -3448 0
-2669 -3449 0
-2670 -3450 0
-2666 -3721 0
-2667 -3722 0
-2668 -3723 0
-2669 -3724 0
-2670 -3725 0
-2671 -2926 0
-2672 -2927 0
-2673 -2928 0
-2674 -2929 0
-2675 -2930 0
-2671 -2941 0
-2672 -2942 0
-2673 -2943 0
-2674 -2944 0
-2675 -2945 0
-2671 -3046 0
-2672 -3047 0
-2673 -3048 0
-2674 -3049 0
-2675 -3050 0
-2671 -3061 0
-2672 -3062 0
-2673 -3063 0
-2674 -3064 0
-2675 -3065 0
-2671 -3431 0
-2672 -3432 0
-2673 -3433 0
-2674 -3434 0
-2675 -3435 0
-2671 -3456 0
-2672 -3457 0
-2673 -3458 0
-2674 -3459 0
-2675 -3460 0
-2671 -3726 0
-2672 -3727 0
-2673 -3728 0
-2674 -3729 0
-2675 -3730 0
-2676 -2936 0
-2677 -2937 0
-2678 -2938 0
-2679 -2939 0
-2680 -2940 0
-2676 -2951 0
-2677 -2952 0
-2678 -2953 0
-2679 -2954 0
-2680 -2955 0
-2676 -3056 0
-2677 -3057 0
-2678 -3058 0
-2679 -3059 0
-2680 -3060 0
-2676 -3071 0
-2677 -3072 0
-2678 -3073 0
-2679 -3074 0
-2680 -3075 0
-2676 -3406 0
-2677 -3407 0
-2678 -3408 0
-2679 -3409 0
-2680 -3410 0
-2676 -3441 0
-2677 -3442 0
-2678 -3443 0
-2679 -3444 0
-2680 -3445 0
-2676 -3751 0
-2677 -3752 0
-2678 -3753 0
-2679 -3754 0
-2680 -3755 0
-2681 -2846 0
-2682 -2847 0
-2683 -2848 0
-2684 -2849 0
-2685 -2850 0
-2681 -2851 0
-2682 -2852 0
-2683 -2853 0
-2684 -2854 0
-2685 -2855 0
-2681 -2906 0
-2682 -2907 0
-2683 -2908 0
-2684 -2909 0
-2685 -2910 0
-2681 -2941 0
-2682 -2942 0
-2683 -2943 0
-2684 -2944 0
-2685 -2945 0
-2681 -2961 0
-2682 -2962 0
-2683 -2963 0
-2684 -2964 0
-2685 -2965 0
-2681 -3126 0
-2682 -3127 0
-2683 -3128 0
-2684 -3129 0
-2685 -3130 0
-2681 -3226 0
-2682 -3227 0
-2683 -3228 0
-2684 -3229 0
-2685 -3230 0
-2681 -3256 0
-2682 -3257 0
-2683 -3258 0
-2684 -3259 0
-2685 -3260 0
-2681 -3486 0
-2682 -3487 0
-2683 -3488 0
-2684 -3489 0
-2685 -3490 0
-2681 -3526 0
-2682 -3527 0
-2683 -3528 0
-2684 -3529 0
-2685 -3530 0
-2681 -3676 0
-2682 -3677 0
-2683 -3678 0
-2684 -3679 0
-2685 -3680 0
-2681 -3771 0
-2682 -3772 0
-2683 -3773 0
-2684 -3774 0
-2685 -3775 0
-2686 -2856 0
-2687 -2857 0
-2688 -2858 0
-2689 -2859 0
-2690 -2860 0
-2686 -2861 0
-2687 -2862 0
-2688 -2863 0
-2689 -2864 0
-2690 -2865 0
-2686 -2946 0
-2687 -2947 0
-2688 -2948 0
-2689 -2949 0
-2690 -2950 0
-2686 -2966 0
-2687 -2967 0
-2688 -2968 0
-2689 -2969 0
-2690 -2970 0
-2686 -3136 0
-2687 -3137 0
-2688 -3138 0
-2689 -3139 0
-2690 -3140 0
-2686 -3231 0
-2687 -3232 0
-2688 -3233 0
-2689 -3234 0
-2690 -3235 0
-2686 -3261 0
-2687 -3262 0
-2688 -3263 0
-2689 -3264 0
-2690 -3265 0
-2686 -3491 0
-2687 -3492 0
-2688 -3493 0
-2689 -3494 0
-2690 -3495 0
-2686 -3531 0
-2687 -3532 0
-2688 -3533 0
-2689 -3534 0
-2690 -3535 0
-2686 -3646 0
-2687 -3647 0
-2688 -3648 0
-2689 -3649 0
-2690 -3650 0
-2686 -3671 0
-2687 -3672 0
-2688 -3673 0
-2689 -3674 0
-2690 -3675 0
-2686 -3821 0
-2687 -3822 0
-2688 -3823 0
-2689 -3824 0
-2690 -3825 0
-2691 -2861 0
-2692 -2862 0
-2693 -2863 0
-2694 -2864 0
-2695 -2865 0
-2691 -2866 0
-2692 -2867 0
-2693 -2868 0
-2694 -2869 0
-2695 -2870 0
-2691 -2951 0
-2692 -2952 0
-2693 -2953 0
-2694 -2954 0
-2695 -2955 0
-2691 -2971 0
-2692 -2972 0
-2693 -2973 0
-2694 -2974 0
-2695 -2975 0
-2691 -3161 0
-2692 -3162 0
-2693 -3163 0
-2694 -3164 0
-2695 -3165 0
-2691 -3236 0
-2692 -3237 0
-2693 -3238 0
-2694 -3239 0
-2695 -3240 0
-2691 -3266 0
-2692 -3267 0
-2693 -3268 0
-2694 -3269 0
-2695 -3270 0
-2691 -3476 0
-2692 -3477 0
-2693 -3478 0
-2694 -3479 0
-2695 -3480 0
-2691 -3496 0
-2692 -3497 0
-2693 -3498 0
-2694 -3499 0
-2695 -3500 0
-2691 -3686 0
-2692 -3687 0
-2693 -3688 0
-2694 -3689 0
-2695 -3690 0
-2691 -3826 0
-2692 -3827 0
-2693 -3828 0
-2694 -3829 0
-2695 -3830 0
-2696 -2871 0
-2697 -2872 0
-2698 -2873 0
-2699 -2874 0
-2700 -2875 0
-2696 -2876 0
-2697 -2877 0
-2698 -2878 0
-2699 -2879 0
-2700 -2880 0
-2696 -2911 0
-2697 -2912 0
-2698 -2913 0
-2699 -2914 0
-2700 -2915 0
-2696 -2956 0
-2697 -2957 0
-2698 -2958 0
-2699 -2959 0
-2700 -2960 0
-2696 -2976 0
-2697 -2977 0
-2698 -2978 0
-2699 -2979 0
-2700 -2980 0
-2696 -3211 0
-2697 -3212 0
-2698 -3213 0
-2699 -3214 0
-2700 -3215 0
-2696 -3241 0
-2697 -3242 0
-2698 -3243 0
-2699 -3244 0
-2700 -3245 0
-2696 -3481 0
-2697 -3482 0
-2698 -3483 0
-2699 -3484 0
-2700 -3485 0
-2696 -3501 0
-2697 -3502 0
-2698 -3503 0
-2699 -3504 0
-2700 -3505 0
-2696 -3681 0
-2697 -3682 0
-2698 -3683 0
-2699 -3684 0
-2700 -3685 0
-2696 -3776 0
-2697 -3777 0
-2698 -3778 0
-2699 -3779 0
-2700 -3780 0
-2696 -3786 0
-2697 -3787 0
-2698 -3788 0
-2699 -3789 0
-2700 -3790 0
-2701 -2876 0
-2702 -2877 0
-2703 -2878 0
-2704 -2879 0
-2705 -2880 0
-2701 -2881 0
-2702 -2882 0
-2703 -2883 0
-2704 -2884 0
-2705 -2885 0
-2701 -2916 0
-2702 -2917 0
-2703 -2918 0
-2704 -2919 0
-2705 -2920 0
-2701 -2921 0
-2702 -2922 0
-2703 -2923 0
-2704 -2924 0
-2705 -2925 0
-2701 -2961 0
-2702 -2962 0
-2703 -2963 0
-2704 -2964 0
-2705 -2965 0
-2701 -3146 0
-2702 -3147 0
-2703 -3148 0
-2704 -3149 0
-2705 -3150 0
-2701 -3216 0
-2702 -3217 0
-2703 -3218 0
-2704 -3219 0
-2705 -3220 0
-2701 -3246 0
-2702 -3247 0
-2703 -3248 0
-2704 -3249 0
-2705 -3250 0
-2701 -3486 0
-2702 -3487 0
-2703 -3488 0
-2704 -3489 0
-2705 -3490 0
-2701 -3506 0
-2702 -3507 0
-2703 -3508 0
-2704 -3509 0
-2705 -3510 0
-2701 -3706 0
-2702 -3707 0
-2703 -3708 0
-2704 -3709 0
-2705 -3710 0
-2701 -3781 0
-2702 -3782 0
-2703 -3783 0
-2704 -3784 0
-2705 -3785 0
-2701 -3791 0
-2702 -3792 0
-2703 -3793 0
-2704 -3794 0
-2705 -3795 0
-2706 -2801 0
-2707 -2802 0
-2708 -2803 0
-2709 -2804 0
-2710 -2805 0
-2706 -2886 0
-2707 -2887 0
-2708 -2888 0
-2709 -2889 0
-2710 -2890 0
-2706 -2926 0
-2707 -2927 0
-2708 -2928 0
-2709 -2929 0
-2710 -2930 0
-2706 -2966 0
-2707 -2967 0
-2708 -2968 0
-2709 -2969 0
-2710 -2970 0
-2706 -3156 0
-2707 -3157 0
-2708 -3158 0
-2709 -3159 0
-2710 -3160 0
-2706 -3221 0
-2707 -3222 0
-2708 -3223 0
-2709 -3224 0
-2710 -3225 0
-2706 -3251 0
-2707 -3252 0
-2708 -3253 0
-2709 -3254 0
-2710 -3255 0
-2706 -3491 0
-2707 -3492 0
-2708 -3493 0
-2709 -3494 0
-2710 -3495 0
-2706 -3511 0
-2707 -3512 0
-2708 -3513 0
-2709 -3514 0
-2710 -3515 0
-2706 -3656 0
-2707 -3657 0
-2708 -3658 0
-2709 -3659 0
-2710 -3660 0
-2706 -3701 0
-2707 -3702 0
-2708 -3703 0
-2709 -3704 0
-2710 -3705 0
-2706 -3831 0
-2707 -3832 0
-2708 -3833 0
-2709 -3834 0
-2710 -3835 0
-2711 -2801 0
-2712 -2802 0
-2713 -2803 0
-2714 -2804 0
-2715 -2805 0
-2711 -2806 0
-2712 -2807 0
-2713 -2808 0
-2714 -2809 0
-2715 -2810 0
-2711 -2931 0
-2712 -2932 0
-2713 -2933 0
-2714 -2934 0
-2715 -2935 0
-2711 -2971 0
-2712 -2972 0
-2713 -2973 0
-2714 -2974 0
-2715 -2975 0
-2711 -3121 0
-2712 -3122 0
-2713 -3123 0
-2714 -3124 0
-2715 -3125 0
-2711 -3226 0
-2712 -3227 0
-2713 -3228 0
-2714 -3229 0
-2715 -3230 0
-2711 -3256 0
-2712 -3257 0
-2713 -3258 0
-2714 -3259 0
-2715 -3260 0
-2711 -3496 0
-2712 -3497 0
-2713 -3498 0
-2714 -3499 0
-2715 -3500 0
-2711 -3516 0
-2712 -3517 0
-2713 -3518 0
-2714 -3519 0
-2715 -3520 0
-2711 -3651 0
-2712 -3652 0
-2713 -3653 0
-2714 -3654 0
-2715 -3655 0
-2711 -3716 0
-2712 -3717 0
-2713 -3718 0
-2714 -3719 0
-2715 -3720 0
-2711 -3836 0
-2712 -3837 0
-2713 -3838 0
-2714 -3839 0
-2715 -3840 0
-2716 -2811 0
-2717 -2812 0
-2718 -2813 0
-2719 -2814 0
-2720 -2815 0
-2716 -2816 0
-2717 -2817 0
-2718 -2818 0
-2719 -2819 0
-2720 -2820 0
-2716 -2891 0
-2717 -2892 0
-2718 -2893 0
-2719 -2894 0
-2720 -2895 0
-2716 -2936 0
-2717 -2937 0
-2718 -2938 0
-2719 -2939 0
-2720 -2940 0
-2716 -2976 0
-2717 -2977 0
-2718 -2978 0
-2719 -2979 0
-2720 -2980 0
-2716 -3131 0
-2717 -3132 0
-2718 -3133 0
-2719 -3134 0
-2720 -3135 0
-2716 -3231 0
-2717 -3232 0
-2718 -3233 0
-2719 -3234 0
-2720 -3235 0
-2716 -3261 0
-2717 -3262 0
-2718 -3263 0
-2719 -3264 0
-2720 -3265 0
-2716 -3501 0
-2717 -3502 0
-2718 -3503 0
-2719 -3504 0
-2720 -3505 0
-2716 -3521 0
-2717 -3522 0
-2718 -3523 0
-2719 -3524 0
-2720 -3525 0
-2716 -3711 0
-2717 -3712 0
-2718 -3713 0
-2719 -3714 0
-2720 -3715 0
-2716 -3796 0
-2717 -3797 0
-2718 -3798 0
-2719 -3799 0
-2720 -3800 0
-2716 -3806 0
-2717 -3807 0
-2718 -3808 0
-2719 -3809 0
-2720 -3810 0
-2721 -2816 0
-2722 -2817 0
-2723 -2818 0
-2724 -2819 0
-2725 -2820 0
-2721 -2821 0
-2722 -2822 0
-2723 -2823 0
-2724 -2824 0
-2725 -2825 0
-2721 -2896 0
-2722 -2897 0
-2723 -2898 0
-2724 -2899 0
-2725 -2900 0
-2721 -2921 0
-2722 -2922 0
-2723 -2923 0
-2724 -2924 0
-2725 -2925 0
-2721 -2941 0
-2722 -2942 0
-2723 -2943 0
-2724 -2944 0
-2725 -2945 0
-2721 -3236 0
-2722 -3237 0
-2723 -3238 0
-2724 -3239 0
-2725 -3240 0
-2721 -3266 0
-2722 -3267 0
-2723 -3268 0
-2724 -3269 0
-2725 -3270 0
-2721 -3506 0
-2722 -3507 0
-2723 -3508 0
-2724 -3509 0
-2725 -3510 0
-2721 -3526 0
-2722 -3527 0
-2723 -3528 0
-2724 -3529 0
-2725 -3530 0
-2721 -3736 0
-2722 -3737 0
-2723 -3738 0
-2724 -3739 0
-2725 -3740 0
-2721 -3801 0
-2722 -3802 0
-2723 -3803 0
-2724 -3804 0
-2725 -3805 0
-2721 -3811 0
-2722 -3812 0
-2723 -3813 0
-2724 -3814 0
-2725 -3815 0
-2726 -2826 0
-2727 -2827 0
-2728 -2828 0
-2729 -2829 0
-2730 -2830 0
-2726 -2831 0
-2727 -2832 0
-2728 -2833 0
-2729 -2834 0
-2730 -2835 0
-2726 -2926 0
-2727 -2927 0
-2728 -2928 0
-2729 -2929 0
-2730 -2930 0
-2726 -2946 0
-2727 -2947 0
-2728 -2948 0
-2729 -2949 0
-2730 -2950 0
-2726 -3116 0
-2727 -3117 0
-2728 -3118 0
-2729 -3119 0
-2730 -3120 0
-2726 -3211 0
-2727 -3212 0
-2728 -3213 0
-2729 -3214 0
-2730 -3215 0
-2726 -3241 0
-2727 -3242 0
-2728 -3243 0
-2729 -3244 0
-2730 -3245 0
-2726 -3511 0
-2727 -3512 0
-2728 -3513 0
-2729 -3514 0
-2730 -3515 0
-2726 -3531 0
-2727 -3532 0
-2728 -3533 0
-2729 -3534 0
-2730 -3535 0
-2726 -3731 0
-2727 -3732 0
-2728 -3733 0
-2729 -3734 0
-2730 -3735 0
-2726 -3841 0
-2727 -3842 0
-2728 -3843 0
-2729 -3844 0
-2730 -3845 0
-2731 -2831 0
-2732 -2832 0
-2733 -2833 0
-2734 -2834 0
-2735 -2835 0
-2731 -2836 0
-2732 -2837 0
-2733 -2838 0
-2734 -2839 0
-2735 -2840 0
-2731 -2931 0
-2732 -2932 0
-2733 -2933 0
-2734 -2934 0
-2735 -2935 0
-2731 -2951 0
-2732 -2952 0
-2733 -2953 0
-2734 -2954 0
-2735 -2955 0
-2731 -3141 0
-2732 -3142 0
-2733 -3143 0
-2734 -3144 0
-2735 -3145 0
-2731 -3216 0
-2732 -3217 0
-2733 -3218 0
-2734 -3219 0
-2735 -3220 0
-2731 -3246 0
-2732 -3247 0
-2733 -3248 0
-2734 -3249 0
-2735 -3250 0
-2731 -3476 0
-2732 -3477 0
-2733 -3478 0
-2734 -3479 0
-2735 -3480 0
-2731 -3516 0
-2732 -3517 0
-2733 -3518 0
-2734 -3519 0
-2735 -3520 0
-2731 -3661 0
-2732 -3662 0
-2733 -3663 0
-2734 -3664 0
-2735 -3665 0
-2731 -3746 0
-2732 -3747 0
-2733 -3748 0
-2734 -3749 0
-2735 -3750 0
-2731 -3846 0
-2732 -3847 0
-2733 -3848 0
-2734 -3849 0
-2735 -3850 0
-2736 -2841 0
-2737 -2842 0
-2738 -2843 0
-2739 -2844 0
-2740 -2845 0
-2736 -2846 0
-2737 -2847 0
-2738 -2848 0
-2739 -2849 0
-2740 -2850 0
-2736 -2901 0
-2737 -2902 0
-2738 -2903 0
-2739 -2904 0
-2740 -2905 0
-2736 -2936 0
-2737 -2937 0
-2738 -2938 0
-2739 -2939 0
-2740 -2940 0
-2736 -2956 0
-2737 -2957 0
-2738 -2958 0
-2739 -2959 0
-2740 -2960 0
-2736 -3151 0
-2737 -3152 0
-2738 -3153 0
-2739 -3154 0
-2740 -3155 0
-2736 -3221 0
-2737 -3222 0
-2738 -3223 0
-2739 -3224 0
-2740 -3225 0
-2736 -3251 0
-2737 -3252 0
-2738 -3253 0
-2739 -3254 0
-2740 -3255 0
-2736 -3481 0
-2737 -3482 0
-2738 -3483 0
-2739 -3484 0
-2740 -3485 0
-2736 -3521 0
-2737 -3522 0
-2738 -3523 0
-2739 -3524 0
-2740 -3525 0
-2736 -3741 0
-2737 -3742 0
-2738 -3743 0
-2739 -3744 0
-2740 -3745 0
-2736 -3816 0
-2737 -3817 0
-2738 -3818 0
-2739 -3819 0
-2740 -3820 0
-2741 -2846 0
-2742 -2847 0
-2743 -2848 0
-2744 -2849 0
-2745 -2850 0
-2741 -2861 0
-2742 -2862 0
-2743 -2863 0
-2744 -2864 0
-2745 -2865 0
-2741 -2911 0
-2742 -2912 0
-2743 -2913 0
-2744 -2914 0
-2745 -2915 0
-2741 -3021 0
-2742 -3022 0
-2743 -3023 0
-2744 -3024 0
-2745 -3025 0
-2741 -3311 0
-2742 -3312 0
-2743 -3313 0
-2744 -3314 0
-2745 -3315 0
-2741 -3381 0
-2742 -3382 0
-2743 -3383 0
-2744 -3384 0
-2745 -3385 0
-2741 -3416 0
-2742 -3417 0
-2743 -3418 0
-2744 -3419 0
-2745 -3420 0
-2741 -3451 0
-2742 -3452 0
-2743 -3453 0
-2744 -3454 0
-2745 -3455 0
-2741 -3681 0
-2742 -3682 0
-2743 -3683 0
-2744 -3684 0
-2745 -3685 0
-2741 -3746 0
-2742 -3747 0
-2743 -3748 0
-2744 -3749 0
-2745 -3750 0
-2741 -3756 0
-2742 -3757 0
-2743 -3758 0
-2744 -3759 0
-2745 -3760 0
-2741 -3851 0
-2742 -3852 0
-2743 -3853 0
-2744 -3854 0
-2745 -3855 0
-2746 -2851 0
-2747 -2852 0
-2748 -2853 0
-2749 -2854 0
-2750 -2855 0
-2746 -2866 0
-2747 -2867 0
-2748 -2868 0
-2749 -2869 0
-2750 -2870 0
-2746 -3001 0
-2747 -3002 0
-2748 -3003 0
-2749 -3004 0
-2750 -3005 0
-2746 -3026 0
-2747 -3027 0
-2748 -3028 0
-2749 -3029 0
-2750 -3030 0
-2746 -3321 0
-2747 -3322 0
-2748 -3323 0
-2749 -3324 0
-2750 -3325 0
-2746 -3386 0
-2747 -3387 0
-2748 -3388 0
-2749 -3389 0
-2750 -3390 0
-2746 -3456 0
-2747 -3457 0
-2748 -3458 0
-2749 -3459 0
-2750 -3460 0
-2746 -3666 0
-2747 -3667 0
-2748 -3668 0
-2749 -3669 0
-2750 -3670 0
-2746 -3771 0
-2747 -3772 0
-2748 -3773 0
-2749 -3774 0
-2750 -3775 0
-2746 -3826 0
-2747 -3827 0
-2748 -3828 0
-2749 -3829 0
-2750 -3830 0
-2746 -3856 0
-2747 -3857 0
-2748 -3858 0
-2749 -3859 0
-2750 -3860 0
-2751 -2856 0
-2752 -2857 0
-2753 -2858 0
-2754 -2859 0
-2755 -2860 0
-2751 -2871 0
-2752 -2872 0
-2753 -2873 0
-2754 -2874 0
-2755 -2875 0
-2751 -3011 0
-2752 -3012 0
-2753 -3013 0
-2754 -3014 0
-2755 -3015 0
-2751 -3036 0
-2752 -3037 0
-2753 -3038 0
-2754 -3039 0
-2755 -3040 0
-2751 -3331 0
-2752 -3332 0
-2753 -3333 0
-2754 -3334 0
-2755 -3335 0
-2751 -3396 0
-2752 -3397 0
-2753 -3398 0
-2754 -3399 0
-2755 -3400 0
-2751 -3421 0
-2752 -3422 0
-2753 -3423 0
-2754 -3424 0
-2755 -3425 0
-2751 -3691 0
-2752 -3692 0
-2753 -3693 0
-2754 -3694 0
-2755 -3695 0
-2751 -3776 0
-2752 -3777 0
-2753 -3778 0
-2754 -3779 0
-2755 -3780 0
-2751 -3821 0
-2752 -3822 0
-2753 -3823 0
-2754 -3824 0
-2755 -3825 0
-2751 -3861 0
-2752 -3862 0
-2753 -3863 0
-2754 -3864 0
-2755 -3865 0
-2756 -2861 0
-2757 -2862 0
-2758 -2863 0
-2759 -2864 0
-2760 -2865 0
-2756 -2876 0
-2757 -2877 0
-2758 -2878 0
-2759 -2879 0
-2760 -2880 0
-2756 -2906 0
-2757 -2907 0
-2758 -2908 0
-2759 -2909 0
-2760 -2910 0
-2756 -3016 0
-2757 -3017 0
-2758 -3018 0
-2759 -3019 0
-2760 -3020 0
-2756 -3286 0
-2757 -3287 0
-2758 -3288 0
-2759 -3289 0
-2760 -3290 0
-2756 -3336 0
-2757 -3337 0
-2758 -3338 0
-2759 -3339 0
-2760 -3340 0
-2756 -3401 0
-2757 -3402 0
-2758 -3403 0
-2759 -3404 0
-2760 -3405 0
-2756 -3426 0
-2757 -3427 0
-2758 -3428 0
-2759 -3429 0
-2760 -3430 0
-2756 -3676 0
-2757 -3677 0
-2758 -3678 0
-2759 -3679 0
-2760 -3680 0
-2756 -3701 0
-2757 -3702 0
-2758 -3703 0
-2759 -3704 0
-2760 -3705 0
-2756 -3756 0
-2757 -3757 0
-2758 -3758 0
-2759 -3759 0
-2760 -3760 0
-2756 -3781 0
-2757 -3782 0
-2758 -3783 0
-2759 -3784 0
-2760 -3785 0
-2756 -3866 0
-2757 -3867 0
-2758 -3868 0
-2759 -3869 0
-2760 -3870 0
-2761 -2801 0
-2762 -2802 0
-2763 -2803 0
-2764 -2804 0
-2765 -2805 0
-2761 -2876 0
-2762 -2877 0
-2763 -2878 0
-2764 -2879 0
-2765 -2880 0
-2761 -2891 0
-2762 -2892 0
-2763 -2893 0
-2764 -2894 0
-2765 -2895 0
-2761 -2981 0
-2762 -2982 0
-2763 -2983 0
-2764 -2984 0
-2765 -2985 0
-2761 -3301 0
-2762 -3302 0
-2763 -3303 0
-2764 -3304 0
-2765 -3305 0
-2761 -3351 0
-2762 -3352 0
-2763 -3353 0
-2764 -3354 0
-2765 -3355 0
-2761 -3411 0
-2762 -3412 0
-2763 -3413 0
-2764 -3414 0
-2765 -3415 0
-2761 -3436 0
-2762 -3437 0
-2763 -3438 0
-2764 -3439 0
-2765 -3440 0
-2761 -3686 0
-2762 -3687 0
-2763 -3688 0
-2764 -3689 0
-2765 -3690 0
-2761 -3711 0
-2762 -3712 0
-2763 -3713 0
-2764 -3714 0
-2765 -3715 0
-2761 -3761 0
-2762 -3762 0
-2763 -3763 0
-2764 -3764 0
-2765 -3765 0
-2761 -3786 0
-2762 -3787 0
-2763 -3788 0
-2764 -3789 0
-2765 -3790 0
-2761 -3871 0
-2762 -3872 0
-2763 -3873 0
-2764 -3874 0
-2765 -3875 0
-2766 -2806 0
-2767 -2807 0
-2768 -2808 0
-2769 -2809 0
-2770 -2810 0
-2766 -2881 0
-2767 -2882 0
-2768 -2883 0
-2769 -2884 0
-2770 -2885 0
-2766 -2986 0
-2767 -2987 0
-2768 -2988 0
-2769 -2989 0
-2770 -2990 0
-2766 -3021 0
-2767 -3022 0
-2768 -3023 0
-2769 -3024 0
-2770 -3025 0
-2766 -3306 0
-2767 -3307 0
-2768 -3308 0
-2769 -3309 0
-2770 -3310 0
-2766 -3361 0
-2767 -3362 0
-2768 -3363 0
-2769 -3364 0
-2770 -3365 0
-2766 -3416 0
-2767 -3417 0
-2768 -3418 0
-2769 -3419 0
-2770 -3420 0
-2766 -3696 0
-2767 -3697 0
-2768 -3698 0
-2769 -3699 0
-2770 -3700 0
-2766 -3791 0
-2767 -3792 0
-2768 -3793 0
-2769 -3794 0
-2770 -3795 0
-2766 -3836 0
-2767 -3837 0
-2768 -3838 0
-2769 -3839 0
-2770 -3840 0
-2766 -3876 0
-2767 -3877 0
-2768 -3878 0
-2769 -3879 0
-2770 -3880 0
-2771 -2811 0
-2772 -2812 0
-2773 -2813 0
-2774 -2814 0
-2775 -2815 0
-2771 -2886 0
-2772 -2887 0
-2773 -2888 0
-2774 -2889 0
-2775 -2890 0
-2771 -2996 0
-2772 -2997 0
-2773 -2998 0
-2774 -2999 0
-2775 -3000 0
-2771 -3031 0
-2772 -3032 0
-2773 -3033 0
-2774 -3034 0
-2775 -3035 0
-2771 -3316 0
-2772 -3317 0
-2773 -3318 0
-2774 -3319 0
-2775 -3320 0
-2771 -3371 0
-2772 -3372 0
-2773 -3373 0
-2774 -3374 0
-2775 -3375 0
-2771 -3441 0
-2772 -3442 0
-2773 -3443 0
-2774 -3444 0
-2775 -3445 0
-2771 -3721 0
-2772 -3722 0
-2773 -3723 0
-2774 -3724 0
-2775 -3725 0
-2771 -3796 0
-2772 -3797 0
-2773 -3798 0
-2774 -3799 0
-2775 -3800 0
-2771 -3831 0
-2772 -3832 0
-2773 -3833 0
-2774 -3834 0
-2775 -3835 0
-2771 -3881 0
-2772 -3882 0
-2773 -3883 0
-2774 -3884 0
-2775 -3885 0
-2776 -2801 0
-2777 -2802 0
-2778 -2803 0
-2779 -2804 0
-2780 -2805 0
-2776 -2816 0
-2777 -2817 0
-2778 -2818 0
-2779 -2819 0
-2780 -2820 0
-2776 -2916 0
-2777 -2917 0
-2778 -2918 0
-2779 -2919 0
-2780 -2920 0
-2776 -3036 0
-2777 -3037 0
-2778 -3038 0
-2779 -3039 0
-2780 -3040 0
-2776 -3326 0
-2777 -3327 0
-2778 -3328 0
-2779 -3329 0
-2780 -3330 0
-2776 -3376 0
-2777 -3377 0
-2778 -3378 0
-2779 -3379 0
-2780 -3380 0
-2776 -3421 0
-2777 -3422 0
-2778 -3423 0
-2779 -3424 0
-2780 -3425 0
-2776 -3446 0
-2777 -3447 0
-2778 -3448 0
-2779 -3449 0
-2780 -3450 0
-2776 -3706 0
-2777 -3707 0
-2778 -3708 0
-2779 -3709 0
-2780 -3710 0
-2776 -3731 0
-2777 -3732 0
-2778 -3733 0
-2779 -3734 0
-2780 -3735 0
-2776 -3761 0
-2777 -3762 0
-2778 -3763 0
-2779 -3764 0
-2780 -3765 0
-2776 -3801 0
-2777 -3802 0
-2778 -3803 0
-2779 -3804 0
-2780 -3805 0
-2776 -3886 0
-2777 -3887 0
-2778 -3888 0
-2779 -3889 0
-2780 -3890 0
-2781 -2816 0
-2782 -2817 0
-2783 -2818 0
-2784 -2819 0
-2785 -2820 0
-2781 -2831 0
-2782 -2832 0
-2783 -2833 0
-2784 -2834 0
-2785 -2835 0
-2781 -2901 0
-2782 -2902 0
-2783 -2903 0
-2784 -2904 0
-2785 -2905 0
-2781 -3001 0
-2782 -3002 0
-2783 -3003 0
-2784 -3004 0
-2785 -3005 0
-2781 -3341 0
-2782 -3342 0
-2783 -3343 0
-2784 -3344 0
-2785 -3345 0
-2781 -3391 0
-2782 -3392 0
-2783 -3393 0
-2784 -3394 0
-2785 -3395 0
-2781 -3431 0
-2782 -3432 0
-2783 -3433 0
-2784 -3434 0
-2785 -3435 0
-2781 -3456 0
-2782 -3457 0
-2783 -3458 0
-2784 -3459 0
-2785 -3460 0
-2781 -3716 0
-2782 -3717 0
-2783 -3718 0
-2784 -3719 0
-2785 -3720 0
-2781 -3741 0
-2782 -3742 0
-2783 -3743 0
-2784 -3744 0
-2785 -3745 0
-2781 -3766 0
-2782 -3767 0
-2783 -3768 0
-2784 -3769 0
-2785 -3770 0
-2781 -3806 0
-2782 -3807 0
-2783 -3808 0
-2784 -3809 0
-2785 -3810 0
-2781 -3891 0
-2782 -3892 0
-2783 -3893 0
-2784 -3894 0
-2785 -3895 0
-2786 -2821 0
-2787 -2822 0
-2788 -2823 0
-2789 -2824 0
-2790 -2825 0
-2786 -2836 0
-2787 -2837 0
-2788 -2838 0
-2789 -2839 0
-2790 -2840 0
-2786 -2981 0
-2787 -2982 0
-2788 -2983 0
-2789 -2984 0
-2790 -2985 0
-2786 -3006 0
-2787 -3007 0
-2788 -3008 0
-2789 -3009 0
-2790 -3010 0
-2786 -3281 0
-2787 -3282 0
-2788 -3283 0
-2789 -3284 0
-2790 -3285 0
-2786 -3346 0
-2787 -3347 0
-2788 -3348 0
-2789 -3349 0
-2790 -3350 0
-2786 -3436 0
-2787 -3437 0
-2788 -3438 0
-2789 -3439 0
-2790 -3440 0
-2786 -3726 0
-2787 -3727 0
-2788 -3728 0
-2789 -3729 0
-2790 -3730 0
-2786 -3811 0
-2787 -3812 0
-2788 -3813 0
-2789 -3814 0
-2790 -3815 0
-2786 -3846 0
-2787 -3847 0
-2788 -3848 0
-2789 -3849 0
-2790 -3850 0
-2786 -3896 0
-2787 -3897 0
-2788 -3898 0
-2789 -3899 0
-2790 -3900 0
-2791 -2826 0
-2792 -2827 0
-2793 -2828 0
-2794 -2829 0
-2795 -2830 0
-2791 -2841 0
-2792 -2842 0
-2793 -2843 0
-2794 -2844 0
-2795 -2845 0
-2791 -2991 0
-2792 -2992 0
-2793 -2993 0
-2794 -2994 0
-2795 -2995 0
-2791 -3016 0
-2792 -3017 0
-2793 -3018 0
-2794 -3019 0
-2795 -3020 0
-2791 -3291 0
-2792 -3292 0
-2793 -3293 0
-2794 -3294 0
-2795 -3295 0
-2791 -3356 0
-2792 -3357 0
-2793 -3358 0
-2794 -3359 0
-2795 -3360 0
-2791 -3401 0
-2792 -3402 0
-2793 -3403 0
-2794 -3404 0
-2795 -3405 0
-2791 -3751 0
-2792 -3752 0
-2793 -3753 0
-2794 -3754 0
-2795 -3755 0
-2791 -3816 0
-2792 -3817 0
-2793 -3818 0
-2794 -3819 0
-2795 -3820 0
-2791 -3841 0
-2792 -3842 0
-2793 -3843 0
-2794 -3844 0
-2795 -3845 0
-2791 -3901 0
-2792 -3902 0
-2793 -3903 0
-2794 -3904 0
-2795 -3905 0
-2796 -2831 0
-2797 -2832 0
-2798 -2833 0
-2799 -2834 0
-2800 -2835 0
-2796 -2846 0
-2797 -2847 0
-2798 -2848 0
-2799 -2849 0
-2800 -2850 0
-2796 -2896 0
-2797 -2897 0
-2798 -2898 0
-2799 -2899 0
-2800 -2900 0
-2796 -2996 0
-2797 -2997 0
-2798 -2998 0
-2799 -2999 0
-2800 -3000 0
-2796 -3296 0
-2797 -3297 0
-2798 -3298 0
-2799 -3299 0
-2800 -3300 0
-2796 -3366 0
-2797 -3367 0
-2798 -3368 0
-2799 -3369 0
-2800 -3370 0
-2796 -3406 0
-2797 -3407 0
-2798 -3408 0
-2799 -3409 0
-2800 -3410 0
-2796 -3441 0
-2797 -3442 0
-2798 -3443 0
-2799 -3444 0
-2800 -3445 0
-2796 -3671 0
-2797 -3672 0
-2798 -3673 0
-2799 -3674 0
-2800 -3675 0
-2796 -3736 0
-2797 -3737 0
-2798 -3738 0
-2799 -3739 0
-2800 -3740 0
-2796 -3766 0
-2797 -3767 0
-2798 -3768 0
-2799 -3769 0
-2800 -3770 0
-2796 -3906 0
-2797 -3907 0
-2798 -3908 0
-2799 -3909 0
-2800 -3910 0
-2801 -2831 0
-2802 -2832 0
-2803 -2833 0
-2804 -2834 0
-2805 -2835 0
-2801 -2861 0
-2802 -2862 0
-2803 -2863 0
-2804 -2864 0
-2805 -2865 0
-2801 -3121 0
-2802 -3122 0
-2803 -3123 0
-2804 -3124 0
-2805 -3125 0
-2801 -3156 0
-2802 -3157 0
-2803 -3158 0
-2804 -3159 0
-2805 -3160 0
-2801 -3221 0
-2802 -3222 0
-2803 -3223 0
-2804 -3224 0
-2805 -3225 0
-2801 -3256 0
-2802 -3257 0
-2803 -3258 0
-2804 -3259 0
-2805 -3260 0
-2801 -3301 0
-2802 -3302 0
-2803 -3303 0
-2804 -3304 0
-2805 -3305 0
-2801 -3376 0
-2802 -3377 0
-2803 -3378 0
-2804 -3379 0
-2805 -3380 0
-2801 -3551 0
-2802 -3552 0
-2803 -3553 0
-2804 -3554 0
-2805 -3555 0
-2801 -3611 0
-2802 -3612 0
-2803 -3613 0
-2804 -3614 0
-2805 -3615 0
-2801 -3676 0
-2802 -3677 0
-2803 -3678 0
-2804 -3679 0
-2805 -3680 0
-2801 -3741 0
-2802 -3742 0
-2803 -3743 0
-2804 -3744 0
-2805 -3745 0
-2801 -3851 0
-2802 -3852 0
-2803 -3853 0
-2804 -3854 0
-2805 -3855 0
-2801 -3906 0
-2802 -3907 0
-2803 -3908 0
-2804 -3909 0
-2805 -3910 0
-2801 -3911 0
-2802 -3912 0
-2803 -3913 0
-2804 -3914 0
-2805 -3915 0
-2801 -3966 0
-2802 -3967 0
-2803 -3968 0
-2804 -3969 0
-2805 -3970 0
-2801 -3971 0
-2802 -3972 0
-2803 -3973 0
-2804 -3974 0
-2805 -3975 0
-2801 -4026 0
-2802 -4027 0
-2803 -4028 0
-2804 -4029 0
-2805 -4030 0
-2806 -2836 0
-2807 -2837 0
-2808 -2838 0
-2809 -2839 0
-2810 -2840 0
-2806 -2866 0
-2807 -2867 0
-2808 -2868 0
-2809 -2869 0
-2810 -2870 0
-2806 -3021 0
-2807 -3022 0
-2808 -3023 0
-2809 -3024 0
-2810 -3025 0
-2806 -3226 0
-2807 -3227 0
-2808 -3228 0
-2809 -3229 0
-2810 -3230 0
-2806 -3306 0
-2807 -3307 0
-2808 -3308 0
-2809 -3309 0
-2810 -3310 0
-2806 -3556 0
-2807 -3557 0
-2808 -3558 0
-2809 -3559 0
-2810 -3560 0
-2806 -3616 0
-2807 -3617 0
-2808 -3618 0
-2809 -3619 0
-2810 -3620 0
-2806 -3856 0
-2807 -3857 0
-2808 -3858 0
-2809 -3859 0
-2810 -3860 0
-2806 -3971 0
-2807 -3972 0
-2808 -3973 0
-2809 -3974 0
-2810 -3975 0
-2811 -2841 0
-2812 -2842 0
-2813 -2843 0
-2814 -2844 0
-2815 -2845 0
-2811 -2871 0
-2812 -2872 0
-2813 -2873 0
-2814 -2874 0
-2815 -2875 0
-2811 -3031 0
-2812 -3032 0
-2813 -3033 0
-2814 -3034 0
-2815 -3035 0
-2811 -3131 0
-2812 -3132 0
-2813 -3133 0
-2814 -3134 0
-2815 -3135 0
-2811 -3261 0
-2812 -3262 0
-2813 -3263 0
-2814 -3264 0
-2815 -3265 0
-2811 -3316 0
-2812 -3317 0
-2813 -3318 0
-2814 -3319 0
-2815 -3320 0
-2811 -3386 0
-2812 -3387 0
-2813 -3388 0
-2814 -3389 0
-2815 -3390 0
-2811 -3561 0
-2812 -3562 0
-2813 -3563 0
-2814 -3564 0
-2815 -3565 0
-2811 -3621 0
-2812 -3622 0
-2813 -3623 0
-2814 -3624 0
-2815 -3625 0
-2811 -3751 0
-2812 -3752 0
-2813 -3753 0
-2814 -3754 0
-2815 -3755 0
-2811 -3861 0
-2812 -3862 0
-2813 -3863 0
-2814 -3864 0
-2815 -3865 0
-2811 -3976 0
-2812 -3977 0
-2813 -3978 0
-2814 -3979 0
-2815 -3980 0
-2816 -2846 0
-2817 -2847 0
-2818 -2848 0
-2819 -2849 0
-2820 -2850 0
-2816 -2876 0
-2817 -2877 0
-2818 -2878 0
-2819 -2879 0
-2820 -2880 0
-2816 -3001 0
-2817 -3002 0
-2818 -3003 0
-2819 -3004 0
-2820 -3005 0
-2816 -3036 0
-2817 -3037 0
-2818 -3038 0
-2819 -3039 0
-2820 -3040 0
-2816 -3231 0
-2817 -3232 0
-2818 -3233 0
-2819 -3234 0
-2820 -3235 0
-2816 -3266 0
-2817 -3267 0
-2818 -3268 0
-2819 -3269 0
-2820 -3270 0
-2816 -3326 0
-2817 -3327 0
-2818 -3328 0
-2819 -3329 0
-2820 -3330 0
-2816 -3391 0
-2817 -3392 0
-2818 -3393 0
-2819 -3394 0
-2820 -3395 0
-2816 -3536 0
-2817 -3537 0
-2818 -3538 0
-2819 -3539 0
-2820 -3540 0
-2816 -3566 0
-2817 -3567 0
-2818 -3568 0
-2819 -3569 0
-2820 -3570 0
-2816 -3671 0
-2817 -3672 0
-2818 -3673 0
-2819 -3674 0
-2820 -3675 0
-2816 -3686 0
-2817 -3687 0
-2818 -3688 0
-2819 -3689 0
-2820 -3690 0
-2816 -3771 0
-2817 -3772 0
-2818 -3773 0
-2819 -3774 0
-2820 -3775 0
-2816 -3776 0
-2817 -3777 0
-2818 -3778 0
-2819 -3779 0
-2820 -3780 0
-2816 -3851 0
-2817 -3852 0
-2818 -3853 0
-2819 -3854 0
-2820 -3855 0
-2816 -3866 0
-2817 -3867 0
-2818 -3868 0
-2819 -3869 0
-2820 -3870 0
-2816 -3916 0
-2817 -3917 0
-2818 -3918 0
-2819 -3919 0
-2820 -3920 0
-2816 -3921 0
-2817 -3922 0
-2818 -3923 0
-2819 -3924 0
-2820 -3925 0
-2821 -2851 0
-2822 -2852 0
-2823 -2853 0
-2824 -2854 0
-2825 -2855 0
-2821 -2881 0
-2822 -2882 0
-2823 -2883 0
-2824 -2884 0
-2825 -2885 0
-2821 -3006 0
-2822 -3007 0
-2823 -3008 0
-2824 -3009 0
-2825 -3010 0
-2821 -3236 0
-2822 -3237 0
-2823 -3238 0
-2824 -3239 0
-2825 -3240 0
-2821 -3281 0
-2822 -3282 0
-2823 -3283 0
-2824 -3284 0
-2825 -3285 0
-2821 -3331 0
-2822 -3332 0
-2823 -3333 0
-2824 -3334 0
-2825 -3335 0
-2821 -3541 0
-2822 -3542 0
-2823 -3543 0
-2824 -3544 0
-2825 -3545 0
-2821 -3571 0
-2822 -3572 0
-2823 -3573 0
-2824 -3574 0
-2825 -3575 0
-2821 -3696 0
-2822 -3697 0
-2823 -3698 0
-2824 -3699 0
-2825 -3700 0
-2821 -3781 0
-2822 -3782 0
-2823 -3783 0
-2824 -3784 0
-2825 -3785 0
-2821 -3856 0
-2822 -3857 0
-2823 -3858 0
-2824 -3859 0
-2825 -3860 0
-2821 -3981 0
-2822 -3982 0
-2823 -3983 0
-2824 -3984 0
-2825 -3985 0
-2826 -2856 0
-2827 -2857 0
-2828 -2858 0
-2829 -2859 0
-2830 -2860 0
-2826 -2886 0
-2827 -2887 0
-2828 -2888 0
-2829 -2889 0
-2830 -2890 0
-2826 -3016 0
-2827 -3017 0
-2828 -3018 0
-2829 -3019 0
-2830 -3020 0
-2826 -3211 0
-2827 -3212 0
-2828 -3213 0
-2829 -3214 0
-2830 -3215 0
-2826 -3291 0
-2827 -3292 0
-2828 -3293 0
-2829 -3294 0
-2830 -3295 0
-2826 -3546 0
-2827 -3547 0
-2828 -3548 0
-2829 -3549 0
-2830 -3550 0
-2826 -3576 0
-2827 -3577 0
-2828 -3578 0
-2829 -3579 0
-2830 -3580 0
-2826 -3861 0
-2827 -3862 0
-2828 -3863 0
-2829 -3864 0
-2830 -3865 0
-2826 -3986 0
-2827 -3987 0
-2828 -3988 0
-2829 -3989 0
-2830 -3990 0
-2831 -2861 0
-2832 -2862 0
-2833 -2863 0
-2834 -2864 0
-2835 -2865 0
-2831 -3116 0
-2832 -3117 0
-2833 -3118 0
-2834 -3119 0
-2835 -3120 0
-2831 -3141 0
-2832 -3142 0
-2833 -3143 0
-2834 -3144 0
-2835 -3145 0
-2831 -3216 0
-2832 -3217 0
-2833 -3218 0
-2834 -3219 0
-2835 -3220 0
-2831 -3241 0
-2832 -3242 0
-2833 -3243 0
-2834 -3244 0
-2835 -3245 0
-2831 -3296 0
-2832 -3297 0
-2833 -3298 0
-2834 -3299 0
-2835 -3300 0
-2831 -3341 0
-2832 -3342 0
-2833 -3343 0
-2834 -3344 0
-2835 -3345 0
-2831 -3551 0
-2832 -3552 0
-2833 -3553 0
-2834 -3554 0
-2835 -3555 0
-2831 -3581 0
-2832 -3582 0
-2833 -3583 0
-2834 -3584 0
-2835 -3585 0
-2831 -3681 0
-2832 -3682 0
-2833 -3683 0
-2834 -3684 0
-2835 -3685 0
-2831 -3706 0
-2832 -3707 0
-2833 -3708 0
-2834 -3709 0
-2835 -3710 0
-2831 -3866 0
-2832 -3867 0
-2833 -3868 0
-2834 -3869 0
-2835 -3870 0
-2831 -3871 0
-2832 -3872 0
-2833 -3873 0
-2834 -3874 0
-2835 -3875 0
-2831 -3926 0
-2832 -3927 0
-2833 -3928 0
-2834 -3929 0
-2835 -3930 0
-2831 -3931 0
-2832 -3932 0
-2833 -3933 0
-2834 -3934 0
-2835 -3935 0
-2831 -3986 0
-2832 -3987 0
-2833 -3988 0
-2834 -3989 0
-2835 -3990 0
-2831 -3991 0
-2832 -3992 0
-2833 -3993 0
-2834 -3994 0
-2835 -3995 0
-2836 -2866 0
-2837 -2867 0
-2838 -2868 0
-2839 -2869 0
-2840 -2870 0
-2836 -2981 0
-2837 -2982 0
-2838 -2983 0
-2839 -2984 0
-2840 -2985 0
-2836 -3246 0
-2837 -3247 0
-2838 -3248 0
-2839 -3249 0
-2840 -3250 0
-2836 -3346 0
-2837 -3347 0
-2838 -3348 0
-2839 -3349 0
-2840 -3350 0
-2836 -3556 0
-2837 -3557 0
-2838 -3558 0
-2839 -3559 0
-2840 -3560 0
-2836 -3586 0
-2837 -3587 0
-2838 -3588 0
-2839 -3589 0
-2840 -3590 0
-2836 -3876 0
-2837 -3877 0
-2838 -3878 0
-2839 -3879 0
-2840 -3880 0
-2836 -3991 0
-2837 -3992 0
-2838 -3993 0
-2839 -3994 0
-2840 -3995 0
-2841 -2871 0
-2842 -2872 0
-2843 -2873 0
-2844 -2874 0
-2845 -2875 0
-2841 -2991 0
-2842 -2992 0
-2843 -2993 0
-2844 -2994 0
-2845 -2995 0
-2841 -3151 0
-2842 -3152 0
-2843 -3153 0
-2844 -3154 0
-2845 -3155 0
-2841 -3221 0
-2842 -3222 0
-2843 -3223 0
-2844 -3224 0
-2845 -3225 0
-2841 -3306 0
-2842 -3307 0
-2843 -3308 0
-2844 -3309 0
-2845 -3310 0
-2841 -3356 0
-2842 -3357 0
-2843 -3358 0
-2844 -3359 0
-2845 -3360 0
-2841 -3561 0
-2842 -3562 0
-2843 -3563 0
-2844 -3564 0
-2845 -3565 0
-2841 -3591 0
-2842 -3592 0
-2843 -3593 0
-2844 -3594 0
-2845 -3595 0
-2841 -3691 0
-2842 -3692 0
-2843 -3693 0
-2844 -3694 0
-2845 -3695 0
-2841 -3786 0
-2842 -3787 0
-2843 -3788 0
-2844 -3789 0
-2845 -3790 0
-2841 -3881 0
-2842 -3882 0
-2843 -3883 0
-2844 -3884 0
-2845 -3885 0
-2841 -3996 0
-2842 -3997 0
-2843 -3998 0
-2844 -3999 0
-2845 -4000 0
-2846 -2876 0
-2847 -2877 0
-2848 -2878 0
-2849 -2879 0
-2850 -2880 0
-2846 -2996 0
-2847 -2997 0
-2848 -2998 0
-2849 -2999 0
-2850 -3000 0
-2846 -3021 0
-2847 -3022 0
-2848 -3023 0
-2849 -3024 0
-2850 -3025 0
-2846 -3226 0
-2847 -3227 0
-2848 -3228 0
-2849 -3229 0
-2850 -3230 0
-2846 -3251 0
-2847 -3252 0
-2848 -3253 0
-2849 -3254 0
-2850 -3255 0
-2846 -3311 0
-2847 -3312 0
-2848 -3313 0
-2849 -3314 0
-2850 -3315 0
-2846 -3366 0
-2847 -3367 0
-2848 -3368 0
-2849 -3369 0
-2850 -3370 0
-2846 -3566 0
-2847 -3567 0
-2848 -3568 0
-2849 -3569 0
-2850 -3570 0
-2846 -3596 0
-2847 -3597 0
-2848 -3598 0
-2849 -3599 0
-2850 -3600 0
-2846 -3701 0
-2847 -3702 0
-2848 -3703 0
-2849 -3704 0
-2850 -3705 0
-2846 -3716 0
-2847 -3717 0
-2848 -3718 0
-2849 -3719 0
-2850 -3720 0
-2846 -3791 0
-2847 -3792 0
-2848 -3793 0
-2849 -3794 0
-2850 -3795 0
-2846 -3796 0
-2847 -3797 0
-2848 -3798 0
-2849 -3799 0
-2850 -3800 0
-2846 -3871 0
-2847 -3872 0
-2848 -3873 0
-2849 -3874 0
-2850 -3875 0
-2846 -3886 0
-2847 -3887 0
-2848 -3888 0
-2849 -3889 0
-2850 -3890 0
-2846 -3936 0
-2847 -3937 0
-2848 -3938 0
-2849 -3939 0
-2850 -3940 0
-2846 -3941 0
-2847 -3942 0
-2848 -3943 0
-2849 -3944 0
-2850 -3945 0
-2851 -2881 0
-2852 -2882 0
-2853 -2883 0
-2854 -2884 0
-2855 -2885 0
-2851 -3026 0
-2852 -3027 0
-2853 -3028 0
-2854 -3029 0
-2855 -3030 0
-2851 -3126 0
-2852 -3127 0
-2853 -3128 0
-2854 -3129 0
-2855 -3130 0
-2851 -3256 0
-2852 -3257 0
-2853 -3258 0
-2854 -3259 0
-2855 -3260 0
-2851 -3321 0
-2852 -3322 0
-2853 -3323 0
-2854 -3324 0
-2855 -3325 0
-2851 -3371 0
-2852 -3372 0
-2853 -3373 0
-2854 -3374 0
-2855 -3375 0
-2851 -3571 0
-2852 -3572 0
-2853 -3573 0
-2854 -3574 0
-2855 -3575 0
-2851 -3601 0
-2852 -3602 0
-2853 -3603 0
-2854 -3604 0
-2855 -3605 0
-2851 -3726 0
-2852 -3727 0
-2853 -3728 0
-2854 -3729 0
-2855 -3730 0
-2851 -3801 0
-2852 -3802 0
-2853 -3803 0
-2854 -3804 0
-2855 -3805 0
-2851 -3876 0
-2852 -3877 0
-2853 -3878 0
-2854 -3879 0
-2855 -3880 0
-2851 -4001 0
-2852 -4002 0
-2853 -4003 0
-2854 -4004 0
-2855 -4005 0
-2856 -2886 0
-2857 -2887 0
-2858 -2888 0
-2859 -2889 0
-2860 -2890 0
-2856 -3036 0
-2857 -3037 0
-2858 -3038 0
-2859 -3039 0
-2860 -3040 0
-2856 -3231 0
-2857 -3232 0
-2858 -3233 0
-2859 -3234 0
-2860 -3235 0
-2856 -3331 0
-2857 -3332 0
-2858 -3333 0
-2859 -3334 0
-2860 -3335 0
-2856 -3576 0
-2857 -3577 0
-2858 -3578 0
-2859 -3579 0
-2860 -3580 0
-2856 -3606 0
-2857 -3607 0
-2858 -3608 0
-2859 -3609 0
-2860 -3610 0
-2856 -3881 0
-2857 -3882 0
-2858 -3883 0
-2859 -3884 0
-2860 -3885 0
-2856 -4006 0
-2857 -4007 0
-2858 -4008 0
-2859 -4009 0
-2860 -4010 0
-2861 -3136 0
-2862 -3137 0
-2863 -3138 0
-2864 -3139 0
-2865 -3140 0
-2861 -3161 0
-2862 -3162 0
-2863 -3163 0
-2864 -3164 0
-2865 -3165 0
-2861 -3236 0
-2862 -3237 0
-2863 -3238 0
-2864 -3239 0
-2865 -3240 0
-2861 -3261 0
-2862 -3262 0
-2863 -3263 0
-2864 -3264 0
-2865 -3265 0
-2861 -3336 0
-2862 -3337 0
-2863 -3338 0
-2864 -3339 0
-2865 -3340 0
-2861 -3381 0
-2862 -3382 0
-2863 -3383 0
-2864 -3384 0
-2865 -3385 0
-2861 -3581 0
-2862 -3582 0
-2863 -3583 0
-2864 -3584 0
-2865 -3585 0
-2861 -3611 0
-2862 -3612 0
-2863 -3613 0
-2864 -3614 0
-2865 -3615 0
-2861 -3711 0
-2862 -3712 0
-2863 -3713 0
-2864 -3714 0
-2865 -3715 0
-2861 -3736 0
-2862 -3737 0
-2863 -3738 0
-2864 -3739 0
-2865 -3740 0
-2861 -3886 0
-2862 -3887 0
-2863 -3888 0
-2864 -3889 0
-2865 -3890 0
-2861 -3891 0
-2862 -3892 0
-2863 -3893 0
-2864 -3894 0
-2865 -3895 0
-2861 -3946 0
-2862 -3947 0
-2863 -3948 0
-2864 -3949 0
-2865 -3950 0
-2861 -3951 0
-2862 -3952 0
-2863 -3953 0
-2864 -3954 0
-2865 -3955 0
-2861 -4006 0
-2862 -4007 0
-2863 -4008 0
-2864 -4009 0
-2865 -4010 0
-2861 -4011 0
-2862 -4012 0
-2863 -4013 0
-2864 -4014 0
-2865 -4015 0
-2866 -3001 0
-2867 -3002 0
-2868 -3003 0
-2869 -3004 0
-2870 -3005 0
-2866 -3266 0
-2867 -3267 0
-2868 -3268 0
-2869 -3269 0
-2870 -3270 0
-2866 -3386 0
-2867 -3387 0
-2868 -3388 0
-2869 -3389 0
-2870 -3390 0
-2866 -3586 0
-2867 -3587 0
-2868 -3588 0
-2869 -3589 0
-2870 -3590 0
-2866 -3616 0
-2867 -3617 0
-2868 -3618 0
-2869 -3619 0
-2870 -3620 0
-2866 -3896 0
-2867 -3897 0
-2868 -3898 0
-2869 -3899 0
-2870 -3900 0
-2866 -4011 0
-2867 -4012 0
-2868 -4013 0
-2869 -4014 0
-2870 -4015 0
-2871 -3011 0
-2872 -3012 0
-2873 -3013 0
-2874 -3014 0
-2875 -3015 0
-2871 -3241 0
-2872 -3242 0
-2873 -3243 0
-2874 -3244 0
-2875 -3245 0
-2871 -3346 0
-2872 -3347 0
-2873 -3348 0
-2874 -3349 0
-2875 -3350 0
-2871 -3396 0
-2872 -3397 0
-2873 -3398 0
-2874 -3399 0
-2875 -3400 0
-2871 -3591 0
-2872 -3592 0
-2873 -3593 0
-2874 -3594 0
-2875 -3595 0
-2871 -3621 0
-2872 -3622 0
-2873 -3623 0
-2874 -3624 0
-2875 -3625 0
-2871 -3721 0
-2872 -3722 0
-2873 -3723 0
-2874 -3724 0
-2875 -3725 0
-2871 -3806 0
-2872 -3807 0
-2873 -3808 0
-2874 -3809 0
-2875 -3810 0
-2871 -3901 0
-2872 -3902 0
-2873 -3903 0
-2874 -3904 0
-2875 -3905 0
-2871 -4016 0
-2872 -4017 0
-2873 -4018 0
-2874 -4019 0
-2875 -4020 0
-2876 -2981 0
-2877 -2982 0
-2878 -2983 0
-2879 -2984 0
-2880 -2985 0
-2876 -3016 0
-2877 -3017 0
-2878 -3018 0
-2879 -3019 0
-2880 -3020 0
-2876 -3211 0
-2877 -3212 0
-2878 -3213 0
-2879 -3214 0
-2880 -3215 0
-2876 -3246 0
-2877 -3247 0
-2878 -3248 0
-2879 -3249 0
-2880 -3250 0
-2876 -3286 0
-2877 -3287 0
-2878 -3288 0
-2879 -3289 0
-2880 -3290 0
-2876 -3351 0
-2877 -3352 0
-2878 -3353 0
-2879 -3354 0
-2880 -3355 0
-2876 -3536 0
-2877 -3537 0
-2878 -3538 0
-2879 -3539 0
-2880 -3540 0
-2876 -3596 0
-2877 -3597 0
-2878 -3598 0
-2879 -3599 0
-2880 -3600 0
-2876 -3731 0
-2877 -3732 0
-2878 -3733 0
-2879 -3734 0
-2880 -3735 0
-2876 -3746 0
-2877 -3747 0
-2878 -3748 0
-2879 -3749 0
-2880 -3750 0
-2876 -3811 0
-2877 -3812 0
-2878 -3813 0
-2879 -3814 0
-2880 -3815 0
-2876 -3816 0
-2877 -3817 0
-2878 -3818 0
-2879 -3819 0
-2880 -3820 0
-2876 -3891 0
-2877 -3892 0
-2878 -3893 0
-2879 -3894 0
-2880 -3895 0
-2876 -3906 0
-2877 -3907 0
-2878 -3908 0
-2879 -3909 0
-2880 -3910 0
-2876 -3956 0
-2877 -3957 0
-2878 -3958 0
-2879 -3959 0
-2880 -3960 0
-2876 -3961 0
-2877 -3962 0
-2878 -3963 0
-2879 -3964 0
-2880 -3965 0
-2881 -2986 0
-2882 -2987 0
-2883 -2988 0
-2884 -2989 0
-2885 -2990 0
-2881 -3146 0
-2882 -3147 0
-2883 -3148 0
-2884 -3149 0
-2885 -3150 0
-2881 -3216 0
-2882 -3217 0
-2883 -3218 0
-2884 -3219 0
-2885 -3220 0
-2881 -3291 0
-2882 -3292 0
-2883 -3293 0
-2884 -3294 0
-2885 -3295 0
-2881 -3361 0
-2882 -3362 0
-2883 -3363 0
-2884 -3364 0
-2885 -3365 0
-2881 -3541 0
-2882 -3542 0
-2883 -3543 0
-2884 -3544 0
-2885 -3545 0
-2881 -3601 0
-2882 -3602 0
-2883 -3603 0
-2884 -3604 0
-2885 -3605 0
-2881 -3666 0
-2882 -3667 0
-2883 -3668 0
-2884 -3669 0
-2885 -3670 0
-2881 -3896 0
-2882 -3897 0
-2883 -3898 0
-2884 -3899 0
-2885 -3900 0
-2881 -4021 0
-2882 -4022 0
-2883 -4023 0
-2884 -4024 0
-2885 -4025 0
-2886 -2996 0
-2887 -2997 0
-2888 -2998 0
-2889 -2999 0
-2890 -3000 0
-2886 -3251 0
-2887 -3252 0
-2888 -3253 0
-2889 -3254 0
-2890 -3255 0
-2886 -3371 0
-2887 -3372 0
-2888 -3373 0
-2889 -3374 0
-2890 -3375 0
-2886 -3546 0
-2887 -3547 0
-2888 -3548 0
-2889 -3549 0
-2890 -3550 0
-2886 -3606 0
-2887 -3607 0
-2888 -3608 0
-2889 -3609 0
-2890 -3610 0
-2886 -3901 0
-2887 -3902 0
-2888 -3903 0
-2889 -3904 0
-2890 -3905 0
-2886 -4026 0
-2887 -4027 0
-2888 -4028 0
-2889 -4029 0
-2890 -4030 0
-2891 -2936 0
-2892 -2937 0
-2893 -2938 0
-2894 -2939 0
-2895 -2940 0
-2891 -3086 0
-2892 -3087 0
-2893 -3088 0
-2894 -3089 0
-2895 -3090 0
-2891 -3201 0
-2892 -3202 0
-2893 -3203 0
-2894 -3204 0
-2895 -3205 0
-2891 -3411 0
-2892 -3412 0
-2893 -3413 0
-2894 -3414 0
-2895 -3415 0
-2891 -3816 0
-2892 -3817 0
-2893 -3818 0
-2894 -3819 0
-2895 -3820 0
-2891 -3916 0
-2892 -3917 0
-2893 -3918 0
-2894 -3919 0
-2895 -3920 0
-2891 -3976 0
-2892 -3977 0
-2893 -3978 0
-2894 -3979 0
-2895 -3980 0
-2896 -2921 0
-2897 -2922 0
-2898 -2923 0
-2899 -2924 0
-2900 -2925 0
-2896 -3071 0
-2897 -3072 0
-2898 -3073 0
-2899 -3074 0
-2900 -3075 0
-2896 -3196 0
-2897 -3197 0
-2898 -3198 0
-2899 -3199 0
-2900 -3200 0
-2896 -3406 0
-2897 -3407 0
-2898 -3408 0
-2899 -3409 0
-2900 -3410 0
-2896 -3626 0
-2897 -3627 0
-2898 -3628 0
-2899 -3629 0
-2900 -3630 0
-2896 -3791 0
-2897 -3792 0
-2898 -3793 0
-2899 -3794 0
-2900 -3795 0
-2896 -3921 0
-2897 -3922 0
-2898 -3923 0
-2899 -3924 0
-2900 -3925 0
-2896 -3981 0
-2897 -3982 0
-2898 -3983 0
-2899 -3984 0
-2900 -3985 0
-2901 -2956 0
-2902 -2957 0
-2903 -2958 0
-2904 -2959 0
-2905 -2960 0
-2901 -3046 0
-2902 -3047 0
-2903 -3048 0
-2904 -3049 0
-2905 -3050 0
-2901 -3181 0
-2902 -3182 0
-2903 -3183 0
-2904 -3184 0
-2905 -3185 0
-2901 -3431 0
-2902 -3432 0
-2903 -3433 0
-2904 -3434 0
-2905 -3435 0
-2901 -3636 0
-2902 -3637 0
-2903 -3638 0
-2904 -3639 0
-2905 -3640 0
-2901 -3776 0
-2902 -3777 0
-2903 -3778 0
-2904 -3779 0
-2905 -3780 0
-2901 -3936 0
-2902 -3937 0
-2903 -3938 0
-2904 -3939 0
-2905 -3940 0
-2901 -3996 0
-2902 -3997 0
-2903 -3998 0
-2904 -3999 0
-2905 -4000 0
-2906 -2941 0
-2907 -2942 0
-2908 -2943 0
-2909 -2944 0
-2910 -2945 0
-2906 -3091 0
-2907 -3092 0
-2908 -3093 0
-2909 -3094 0
-2910 -3095 0
-2906 -3206 0
-2907 -3207 0
-2908 -3208 0
-2909 -3209 0
-2910 -3210 0
-2906 -3426 0
-2907 -3427 0
-2908 -3428 0
-2909 -3429 0
-2910 -3430 0
-2906 -3631 0
-2907 -3632 0
-2908 -3633 0
-2909 -3634 0
-2910 -3635 0
-2906 -3811 0
-2907 -3812 0
-2908 -3813 0
-2909 -3814 0
-2910 -3815 0
-2906 -3941 0
-2907 -3942 0
-2908 -3943 0
-2909 -3944 0
-2910 -3945 0
-2906 -4001 0
-2907 -4002 0
-2908 -4003 0
-2909 -4004 0
-2910 -4005 0
-2911 -2976 0
-2912 -2977 0
-2913 -2978 0
-2914 -2979 0
-2915 -2980 0
-2911 -3066 0
-2912 -3067 0
-2913 -3068 0
-2914 -3069 0
-2915 -3070 0
-2911 -3191 0
-2912 -3192 0
-2913 -3193 0
-2914 -3194 0
-2915 -3195 0
-2911 -3451 0
-2912 -3452 0
-2913 -3453 0
-2914 -3454 0
-2915 -3455 0
-2911 -3641 0
-2912 -3642 0
-2913 -3643 0
-2914 -3644 0
-2915 -3645 0
-2911 -3796 0
-2912 -3797 0
-2913 -3798 0
-2914 -3799 0
-2915 -3800 0
-2911 -3956 0
-2912 -3957 0
-2913 -3958 0
-2914 -3959 0
-2915 -3960 0
-2911 -4016 0
-2912 -4017 0
-2913 -4018 0
-2914 -4019 0
-2915 -4020 0
-2916 -2961 0
-2917 -2962 0
-2918 -2963 0
-2919 -2964 0
-2920 -2965 0
-2916 -3051 0
-2917 -3052 0
-2918 -3053 0
-2919 -3054 0
-2920 -3055 0
-2916 -3186 0
-2917 -3187 0
-2918 -3188 0
-2919 -3189 0
-2920 -3190 0
-2916 -3446 0
-2917 -3447 0
-2918 -3448 0
-2919 -3449 0
-2920 -3450 0
-2916 -3771 0
-2917 -3772 0
-2918 -3773 0
-2919 -3774 0
-2920 -3775 0
-2916 -3961 0
-2917 -3962 0
-2918 -3963 0
-2919 -3964 0
-2920 -3965 0
-2916 -4021 0
-2917 -4022 0
-2918 -4023 0
-2919 -4024 0
-2920 -4025 0
-2921 -3086 0
-2922 -3087 0
-2923 -3088 0
-2924 -3089 0
-2925 -3090 0
-2921 -3121 0
-2922 -3122 0
-2923 -3123 0
-2924 -3124 0
-2925 -3125 0
-2921 -3486 0
-2922 -3487 0
-2923 -3488 0
-2924 -3489 0
-2925 -3490 0
-2921 -3526 0
-2922 -3527 0
-2923 -3528 0
-2924 -3529 0
-2925 -3530 0
-2921 -3856 0
-2922 -3857 0
-2923 -3858 0
-2924 -3859 0
-2925 -3860 0
-2921 -3906 0
-2922 -3907 0
-2923 -3908 0
-2924 -3909 0
-2925 -3910 0
-2921 -3916 0
-2922 -3917 0
-2923 -3918 0
-2924 -3919 0
-2925 -3920 0
-2921 -4031 0
-2922 -4032 0
-2923 -4033 0
-2924 -4034 0
-2925 -4035 0
-2926 -3061 0
-2927 -3062 0
-2928 -3063 0
-2929 -3064 0
-2930 -3065 0
-2926 -3131 0
-2927 -3132 0
-2928 -3133 0
-2929 -3134 0
-2930 -3135 0
-2926 -3276 0
-2927 -3277 0
-2928 -3278 0
-2929 -3279 0
-2930 -3280 0
-2926 -3491 0
-2927 -3492 0
-2928 -3493 0
-2929 -3494 0
-2930 -3495 0
-2926 -3531 0
-2927 -3532 0
-2928 -3533 0
-2929 -3534 0
-2930 -3535 0
-2926 -3866 0
-2927 -3867 0
-2928 -3868 0
-2929 -3869 0
-2930 -3870 0
-2926 -3911 0
-2927 -3912 0
-2928 -3913 0
-2929 -3914 0
-2930 -3915 0
-2926 -4061 0
-2927 -4062 0
-2928 -4063 0
-2929 -4064 0
-2930 -4065 0
-2931 -3096 0
-2932 -3097 0
-2933 -3098 0
-2934 -3099 0
-2935 -3100 0
-2931 -3476 0
-2932 -3477 0
-2933 -3478 0
-2934 -3479 0
-2935 -3480 0
-2931 -3496 0
-2932 -3497 0
-2933 -3498 0
-2934 -3499 0
-2935 -3500 0
-2931 -3851 0
-2932 -3852 0
-2933 -3853 0
-2934 -3854 0
-2935 -3855 0
-2931 -3926 0
-2932 -3927 0
-2933 -3928 0
-2934 -3929 0
-2935 -3930 0
-2931 -4066 0
-2932 -4067 0
-2933 -4068 0
-2934 -4069 0
-2935 -4070 0
-2936 -3071 0
-2937 -3072 0
-2938 -3073 0
-2939 -3074 0
-2940 -3075 0
-2936 -3116 0
-2937 -3117 0
-2938 -3118 0
-2939 -3119 0
-2940 -3120 0
-2936 -3481 0
-2937 -3482 0
-2938 -3483 0
-2939 -3484 0
-2940 -3485 0
-2936 -3501 0
-2937 -3502 0
-2938 -3503 0
-2939 -3504 0
-2940 -3505 0
-2936 -3861 0
-2937 -3862 0
-2938 -3863 0
-2939 -3864 0
-2940 -3865 0
-2936 -3871 0
-2937 -3872 0
-2938 -3873 0
-2939 -3874 0
-2940 -3875 0
-2936 -3921 0
-2937 -3922 0
-2938 -3923 0
-2939 -3924 0
-2940 -3925 0
-2936 -4036 0
-2937 -4037 0
-2938 -4038 0
-2939 -4039 0
-2940 -4040 0
-2941 -3046 0
-2942 -3047 0
-2943 -3048 0
-2944 -3049 0
-2945 -3050 0
-2941 -3141 0
-2942 -3142 0
-2943 -3143 0
-2944 -3144 0
-2945 -3145 0
-2941 -3486 0
-2942 -3487 0
-2943 -3488 0
-2944 -3489 0
-2945 -3490 0
-2941 -3506 0
-2942 -3507 0
-2943 -3508 0
-2944 -3509 0
-2945 -3510 0
-2941 -3866 0
-2942 -3867 0
-2943 -3868 0
-2944 -3869 0
-2945 -3870 0
-2941 -3876 0
-2942 -3877 0
-2943 -3878 0
-2944 -3879 0
-2945 -3880 0
-2941 -3936 0
-2942 -3937 0
-2943 -3938 0
-2944 -3939 0
-2945 -3940 0
-2941 -4041 0
-2942 -4042 0
-2943 -4043 0
-2944 -4044 0
-2945 -4045 0
-2946 -3081 0
-2947 -3082 0
-2948 -3083 0
-2949 -3084 0
-2950 -3085 0
-2946 -3151 0
-2947 -3152 0
-2948 -3153 0
-2949 -3154 0
-2950 -3155 0
-2946 -3491 0
-2947 -3492 0
-2948 -3493 0
-2949 -3494 0
-2950 -3495 0
-2946 -3511 0
-2947 -3512 0
-2948 -3513 0
-2949 -3514 0
-2950 -3515 0
-2946 -3886 0
-2947 -3887 0
-2948 -3888 0
-2949 -3889 0
-2950 -3890 0
-2946 -3931 0
-2947 -3932 0
-2948 -3933 0
-2949 -3934 0
-2950 -3935 0
-2946 -4071 0
-2947 -4072 0
-2948 -4073 0
-2949 -4074 0
-2950 -4075 0
-2951 -3056 0
-2952 -3057 0
-2953 -3058 0
-2954 -3059 0
-2955 -3060 0
-2951 -3126 0
-2952 -3127 0
-2953 -3128 0
-2954 -3129 0
-2955 -3130 0
-2951 -3496 0
-2952 -3497 0
-2953 -3498 0
-2954 -3499 0
-2955 -3500 0
-2951 -3516 0
-2952 -3517 0
-2953 -3518 0
-2954 -3519 0
-2955 -3520 0
-2951 -3871 0
-2952 -3872 0
-2953 -3873 0
-2954 -3874 0
-2955 -3875 0
-2951 -3946 0
-2952 -3947 0
-2953 -3948 0
-2954 -3949 0
-2955 -3950 0
-2951 -4076 0
-2952 -4077 0
-2953 -4078 0
-2954 -4079 0
-2955 -4080 0
-2956 -3091 0
-2957 -3092 0
-2958 -3093 0
-2959 -3094 0
-2960 -3095 0
-2956 -3136 0
-2957 -3137 0
-2958 -3138 0
-2959 -3139 0
-2960 -3140 0
-2956 -3501 0
-2957 -3502 0
-2958 -3503 0
-2959 -3504 0
-2960 -3505 0
-2956 -3521 0
-2957 -3522 0
-2958 -3523 0
-2959 -3524 0
-2960 -3525 0
-2956 -3881 0
-2957 -3882 0
-2958 -3883 0
-2959 -3884 0
-2960 -3885 0
-2956 -3891 0
-2957 -3892 0
-2958 -3893 0
-2959 -3894 0
-2960 -3895 0
-2956 -3941 0
-2957 -3942 0
-2958 -3943 0
-2959 -3944 0
-2960 -3945 0
-2956 -4046 0
-2957 -4047 0
-2958 -4048 0
-2959 -4049 0
-2960 -4050 0
-2961 -3066 0
-2962 -3067 0
-2963 -3068 0
-2964 -3069 0
-2965 -3070 0
-2961 -3161 0
-2962 -3162 0
-2963 -3163 0
-2964 -3164 0
-2965 -3165 0
-2961 -3506 0
-2962 -3507 0
-2963 -3508 0
-2964 -3509 0
-2965 -3510 0
-2961 -3526 0
-2962 -3527 0
-2963 -3528 0
-2964 -3529 0
-2965 -3530 0
-2961 -3886 0
-2962 -3887 0
-2963 -3888 0
-2964 -3889 0
-2965 -3890 0
-2961 -3896 0
-2962 -3897 0
-2963 -3898 0
-2964 -3899 0
-2965 -3900 0
-2961 -3956 0
-2962 -3957 0
-2963 -3958 0
-2964 -3959 0
-2965 -3960 0
-2961 -4051 0
-2962 -4052 0
-2963 -4053 0
-2964 -4054 0
-2965 -4055 0
-2966 -3041 0
-2967 -3042 0
-2968 -3043 0
-2969 -3044 0
-2970 -3045 0
-2966 -3511 0
-2967 -3512 0
-2968 -3513 0
-2969 -3514 0
-2970 -3515 0
-2966 -3531 0
-2967 -3532 0
-2968 -3533 0
-2969 -3534 0
-2970 -3535 0
-2966 -3906 0
-2967 -3907 0
-2968 -3908 0
-2969 -3909 0
-2970 -3910 0
-2966 -3951 0
-2967 -3952 0
-2968 -3953 0
-2969 -3954 0
-2970 -3955 0
-2966 -4081 0
-2967 -4082 0
-2968 -4083 0
-2969 -4084 0
-2970 -4085 0
-2971 -3076 0
-2972 -3077 0
-2973 -3078 0
-2974 -3079 0
-2975 -3080 0
-2971 -3146 0
-2972 -3147 0
-2973 -3148 0
-2974 -3149 0
-2975 -3150 0
-2971 -3271 0
-2972 -3272 0
-2973 -3273 0
-2974 -3274 0
-2975 -3275 0
-2971 -3476 0
-2972 -3477 0
-2973 -3478 0
-2974 -3479 0
-2975 -3480 0
-2971 -3516 0
-2972 -3517 0
-2973 -3518 0
-2974 -3519 0
-2975 -3520 0
-2971 -3891 0
-2972 -3892 0
-2973 -3893 0
-2974 -3894 0
-2975 -3895 0
-2971 -3966 0
-2972 -3967 0
-2973 -3968 0
-2974 -3969 0
-2975 -3970 0
-2971 -4086 0
-2972 -4087 0
-2973 -4088 0
-2974 -4089 0
-2975 -4090 0
-2976 -3051 0
-2977 -3052 0
-2978 -3053 0
-2979 -3054 0
-2980 -3055 0
-2976 -3156 0
-2977 -3157 0
-2978 -3158 0
-2979 -3159 0
-2980 -3160 0
-2976 -3481 0
-2977 -3482 0
-2978 -3483 0
-2979 -3484 0
-2980 -3485 0
-2976 -3521 0
-2977 -3522 0
-2978 -3523 0
-2979 -3524 0
-2980 -3525 0
-2976 -3851 0
-2977 -3852 0
-2978 -3853 0
-2979 -3854 0
-2980 -3855 0
-2976 -3901 0
-2977 -3902 0
-2978 -3903 0
-2979 -3904 0
-2980 -3905 0
-2976 -3961 0
-2977 -3962 0
-2978 -3963 0
-2979 -3964 0
-2980 -3965 0
-2976 -4056 0
-2977 -4057 0
-2978 -4058 0
-2979 -4059 0
-2980 -4060 0
-2981 -3106 0
-2982 -3107 0
-2983 -3108 0
-2984 -3109 0
-2985 -3110 0
-2981 -3311 0
-2982 -3312 0
-2983 -3313 0
-2984 -3314 0
-2985 -3315 0
-2981 -3386 0
-2982 -3387 0
-2983 -3388 0
-2984 -3389 0
-2985 -3390 0
-2981 -3746 0
-2982 -3747 0
-2983 -3748 0
-2984 -3749 0
-2985 -3750 0
-2981 -3971 0
-2982 -3972 0
-2983 -3973 0
-2984 -3974 0
-2985 -3975 0
-2981 -4101 0
-2982 -4102 0
-2983 -4103 0
-2984 -4104 0
-2985 -4105 0
-2986 -3321 0
-2987 -3322 0
-2988 -3323 0
-2989 -3324 0
-2990 -3325 0
-2986 -3391 0
-2987 -3392 0
-2988 -3393 0
-2989 -3394 0
-2990 -3395 0
-2986 -3666 0
-2987 -3667 0
-2988 -3668 0
-2989 -3669 0
-2990 -3670 0
-2986 -3981 0
-2987 -3982 0
-2988 -3983 0
-2989 -3984 0
-2990 -3985 0
-2986 -4031 0
-2987 -4032 0
-2988 -4033 0
-2989 -4034 0
-2990 -4035 0
-2986 -4066 0
-2987 -4067 0
-2988 -4068 0
-2989 -4069 0
-2990 -4070 0
-2986 -4106 0
-2987 -4107 0
-2988 -4108 0
-2989 -4109 0
-2990 -4110 0
-2991 -3326 0
-2992 -3327 0
-2993 -3328 0
-2994 -3329 0
-2995 -3330 0
-2991 -3396 0
-2992 -3397 0
-2993 -3398 0
-2994 -3399 0
-2995 -3400 0
-2991 -3691 0
-2992 -3692 0
-2993 -3693 0
-2994 -3694 0
-2995 -3695 0
-2991 -3976 0
-2992 -3977 0
-2993 -3978 0
-2994 -3979 0
-2995 -3980 0
-2991 -4036 0
-2992 -4037 0
-2993 -4038 0
-2994 -4039 0
-2995 -4040 0
-2991 -4061 0
-2992 -4062 0
-2993 -4063 0
-2994 -4064 0
-2995 -4065 0
-2991 -4106 0
-2992 -4107 0
-2993 -4108 0
-2994 -4109 0
-2995 -4110 0
-2996 -3101 0
-2997 -3102 0
-2998 -3103 0
-2999 -3104 0
-3000 -3105 0
-2996 -3286 0
-2997 -3287 0
-2998 -3288 0
-2999 -3289 0
-3000 -3290 0
-2996 -3331 0
-2997 -3332 0
-2998 -3333 0
-2999 -3334 0
-3000 -3335 0
-2996 -3701 0
-2997 -3702 0
-2998 -3703 0
-2999 -3704 0
-3000 -3705 0
-2996 -3986 0
-2997 -3987 0
-2998 -3988 0
-2999 -3989 0
-3000 -3990 0
-2996 -4111 0
-2997 -4112 0
-2998 -4113 0
-2999 -4114 0
-3000 -4115 0
-3001 -3111 0
-3002 -3112 0
-3003 -3113 0
-3004 -3114 0
-3005 -3115 0
-3001 -3306 0
-3002 -3307 0
-3003 -3308 0
-3004 -3309 0
-3005 -3310 0
-3001 -3351 0
-3002 -3352 0
-3003 -3353 0
-3004 -3354 0
-3005 -3355 0
-3001 -3686 0
-3002 -3687 0
-3003 -3688 0
-3004 -3689 0
-3005 -3690 0
-3001 -3991 0
-3002 -3992 0
-3003 -3993 0
-3004 -3994 0
-3005 -3995 0
-3001 -4131 0
-3002 -4132 0
-3003 -4133 0
-3004 -4134 0
-3005 -4135 0
-3006 -3311 0
-3007 -3312 0
-3008 -3313 0
-3009 -3314 0
-3010 -3315 0
-3006 -3361 0
-3007 -3362 0
-3008 -3363 0
-3009 -3364 0
-3010 -3365 0
-3006 -3696 0
-3007 -3697 0
-3008 -3698 0
-3009 -3699 0
-3010 -3700 0
-3006 -4001 0
-3007 -4002 0
-3008 -4003 0
-3009 -4004 0
-3010 -4005 0
-3006 -4041 0
-3007 -4042 0
-3008 -4043 0
-3009 -4044 0
-3010 -4045 0
-3006 -4076 0
-3007 -4077 0
-3008 -4078 0
-3009 -4079 0
-3010 -4080 0
-3006 -4136 0
-3007 -4137 0
-3008 -4138 0
-3009 -4139 0
-3010 -4140 0
-3011 -3316 0
-3012 -3317 0
-3013 -3318 0
-3014 -3319 0
-3015 -3320 0
-3011 -3366 0
-3012 -3367 0
-3013 -3368 0
-3014 -3369 0
-3015 -3370 0
-3011 -3721 0
-3012 -3722 0
-3013 -3723 0
-3014 -3724 0
-3015 -3725 0
-3011 -3996 0
-3012 -3997 0
-3013 -3998 0
-3014 -3999 0
-3015 -4000 0
-3011 -4046 0
-3012 -4047 0
-3013 -4048 0
-3014 -4049 0
-3015 -4050 0
-3011 -4071 0
-3012 -4072 0
-3013 -4073 0
-3014 -4074 0
-3015 -4075 0
-3011 -4136 0
-3012 -4137 0
-3013 -4138 0
-3014 -4139 0
-3015 -4140 0
-3016 -3106 0
-3017 -3107 0
-3018 -3108 0
-3019 -3109 0
-3020 -3110 0
-3016 -3326 0
-3017 -3327 0
-3018 -3328 0
-3019 -3329 0
-3020 -3330 0
-3016 -3371 0
-3017 -3372 0
-3018 -3373 0
-3019 -3374 0
-3020 -3375 0
-3016 -3731 0
-3017 -3732 0
-3018 -3733 0
-3019 -3734 0
-3020 -3735 0
-3016 -4006 0
-3017 -4007 0
-3018 -4008 0
-3019 -4009 0
-3020 -4010 0
-3016 -4141 0
-3017 -4142 0
-3018 -4143 0
-3019 -4144 0
-3020 -4145 0
-3021 -3101 0
-3022 -3102 0
-3023 -3103 0
-3024 -3104 0
-3025 -3105 0
-3021 -3346 0
-3022 -3347 0
-3023 -3348 0
-3024 -3349 0
-3025 -3350 0
-3021 -3391 0
-3022 -3392 0
-3023 -3393 0
-3024 -3394 0
-3025 -3395 0
-3021 -3716 0
-3022 -3717 0
-3023 -3718 0
-3024 -3719 0
-3025 -3720 0
-3021 -4011 0
-3022 -4012 0
-3023 -4013 0
-3024 -4014 0
-3025 -4015 0
-3021 -4161 0
-3022 -4162 0
-3023 -4163 0
-3024 -4164 0
-3025 -4165 0
-3026 -3281 0
-3027 -3282 0
-3028 -3283 0
-3029 -3284 0
-3030 -3285 0
-3026 -3351 0
-3027 -3352 0
-3028 -3353 0
-3029 -3354 0
-3030 -3355 0
-3026 -3726 0
-3027 -3727 0
-3028 -3728 0
-3029 -3729 0
-3030 -3730 0
-3026 -4021 0
-3027 -4022 0
-3028 -4023 0
-3029 -4024 0
-3030 -4025 0
-3026 -4051 0
-3027 -4052 0
-3028 -4053 0
-3029 -4054 0
-3030 -4055 0
-3026 -4086 0
-3027 -4087 0
-3028 -4088 0
-3029 -4089 0
-3030 -4090 0
-3026 -4166 0
-3027 -4167 0
-3028 -4168 0
-3029 -4169 0
-3030 -4170 0
-3031 -3286 0
-3032 -3287 0
-3033 -3288 0
-3034 -3289 0
-3035 -3290 0
-3031 -3356 0
-3032 -3357 0
-3033 -3358 0
-3034 -3359 0
-3035 -3360 0
-3031 -3751 0
-3032 -3752 0
-3033 -3753 0
-3034 -3754 0
-3035 -3755 0
-3031 -4016 0
-3032 -4017 0
-3033 -4018 0
-3034 -4019 0
-3035 -4020 0
-3031 -4056 0
-3032 -4057 0
-3033 -4058 0
-3034 -4059 0
-3035 -4060 0
-3031 -4081 0
-3032 -4082 0
-3033 -4083 0
-3034 -4084 0
-3035 -4085 0
-3031 -4166 0
-3032 -4167 0
-3033 -4168 0
-3034 -4169 0
-3035 -4170 0
-3036 -3111 0
-3037 -3112 0
-3038 -3113 0
-3039 -3114 0
-3040 -3115 0
-3036 -3291 0
-3037 -3292 0
-3038 -3293 0
-3039 -3294 0
-3040 -3295 0
-3036 -3366 0
-3037 -3367 0
-3038 -3368 0
-3039 -3369 0
-3040 -3370 0
-3036 -3671 0
-3037 -3672 0
-3038 -3673 0
-3039 -3674 0
-3040 -3675 0
-3036 -4026 0
-3037 -4027 0
-3038 -4028 0
-3039 -4029 0
-3040 -4030 0
-3036 -4171 0
-3037 -4172 0
-3038 -4173 0
-3039 -4174 0
-3040 -4175 0
-3041 -3056 0
-3042 -3057 0
-3043 -3058 0
-3044 -3059 0
-3045 -3060 0
-3041 -3411 0
-3042 -3412 0
-3043 -3413 0
-3044 -3414 0
-3045 -3415 0
-3041 -3556 0
-3042 -3557 0
-3043 -3558 0
-3044 -3559 0
-3045 -3560 0
-3046 -3091 0
-3047 -3092 0
-3048 -3093 0
-3049 -3094 0
-3050 -3095 0
-3046 -3171 0
-3047 -3172 0
-3048 -3173 0
-3049 -3174 0
-3050 -3175 0
-3046 -3456 0
-3047 -3457 0
-3048 -3458 0
-3049 -3459 0
-3050 -3460 0
-3046 -3621 0
-3047 -3622 0
-3048 -3623 0
-3049 -3624 0
-3050 -3625 0
-3046 -4061 0
-3047 -4062 0
-3048 -4063 0
-3049 -4064 0
-3050 -4065 0
-3051 -3066 0
-3052 -3067 0
-3053 -3068 0
-3054 -3069 0
-3055 -3070 0
-3051 -3166 0
-3052 -3167 0
-3053 -3168 0
-3054 -3169 0
-3055 -3170 0
-3051 -3421 0
-3052 -3422 0
-3053 -3423 0
-3054 -3424 0
-3055 -3425 0
-3051 -3571 0
-3052 -3572 0
-3053 -3573 0
-3054 -3574 0
-3055 -3575 0
-3051 -4066 0
-3052 -4067 0
-3053 -4068 0
-3054 -4069 0
-3055 -4070 0
-3056 -3406 0
-3057 -3407 0
-3058 -3408 0
-3059 -3409 0
-3060 -3410 0
-3056 -3546 0
-3057 -3547 0
-3058 -3548 0
-3059 -3549 0
-3060 -3550 0
-3061 -3076 0
-3062 -3077 0
-3063 -3078 0
-3064 -3079 0
-3065 -3080 0
-3061 -3431 0
-3062 -3432 0
-3063 -3433 0
-3064 -3434 0
-3065 -3435 0
-3061 -3586 0
-3062 -3587 0
-3063 -3588 0
-3064 -3589 0
-3065 -3590 0
-3066 -3176 0
-3067 -3177 0
-3068 -3178 0
-3069 -3179 0
-3070 -3180 0
-3066 -3416 0
-3067 -3417 0
-3068 -3418 0
-3069 -3419 0
-3070 -3420 0
-3066 -3561 0
-3067 -3562 0
-3068 -3563 0
-3069 -3564 0
-3070 -3565 0
-3066 -4071 0
-3067 -4072 0
-3068 -4073 0
-3069 -4074 0
-3070 -4075 0
-3071 -3086 0
-3072 -3087 0
-3073 -3088 0
-3074 -3089 0
-3075 -3090 0
-3071 -3171 0
-3072 -3172 0
-3073 -3173 0
-3074 -3174 0
-3075 -3175 0
-3071 -3441 0
-3072 -3442 0
-3073 -3443 0
-3074 -3444 0
-3075 -3445 0
-3071 -3601 0
-3072 -3602 0
-3073 -3603 0
-3074 -3604 0
-3075 -3605 0
-3071 -4076 0
-3072 -4077 0
-3073 -4078 0
-3074 -4079 0
-3075 -4080 0
-3076 -3426 0
-3077 -3427 0
-3078 -3428 0
-3079 -3429 0
-3080 -3430 0
-3076 -3576 0
-3077 -3577 0
-3078 -3578 0
-3079 -3579 0
-3080 -3580 0
-3081 -3096 0
-3082 -3097 0
-3083 -3098 0
-3084 -3099 0
-3085 -3100 0
-3081 -3451 0
-3082 -3452 0
-3083 -3453 0
-3084 -3454 0
-3085 -3455 0
-3081 -3616 0
-3082 -3617 0
-3083 -3618 0
-3084 -3619 0
-3085 -3620 0
-3086 -3166 0
-3087 -3167 0
-3088 -3168 0
-3089 -3169 0
-3090 -3170 0
-3086 -3436 0
-3087 -3437 0
-3088 -3438 0
-3089 -3439 0
-3090 -3440 0
-3086 -3591 0
-3087 -3592 0
-3088 -3593 0
-3089 -3594 0
-3090 -3595 0
-3086 -4081 0
-3087 -4082 0
-3088 -4083 0
-3089 -4084 0
-3090 -4085 0
-3091 -3176 0
-3092 -3177 0
-3093 -3178 0
-3094 -3179 0
-3095 -3180 0
-3091 -3401 0
-3092 -3402 0
-3093 -3403 0
-3094 -3404 0
-3095 -3405 0
-3091 -3541 0
-3092 -3542 0
-3093 -3543 0
-3094 -3544 0
-3095 -3545 0
-3091 -4086 0
-3092 -4087 0
-3093 -4088 0
-3094 -4089 0
-3095 -4090 0
-3096 -3446 0
-3097 -3447 0
-3098 -3448 0
-3099 -3449 0
-3100 -3450 0
-3096 -3606 0
-3097 -3607 0
-3098 -3608 0
-3099 -3609 0
-3100 -3610 0
-3101 -4096 0
-3102 -4097 0
-3103 -4098 0
-3104 -4099 0
-3105 -4100 0
-3101 -4176 0
-3102 -4177 0
-3103 -4178 0
-3104 -4179 0
-3105 -4180 0
-3106 -4116 0
-3107 -4117 0
-3108 -4118 0
-3109 -4119 0
-3110 -4120 0
-3106 -4126 0
-3107 -4127 0
-3108 -4128 0
-3109 -4129 0
-3110 -4130 0
-3111 -4146 0
-3112 -4147 0
-3113 -4148 0
-3114 -4149 0
-3115 -4150 0
-3111 -4156 0
-3112 -4157 0
-3113 -4158 0
-3114 -4159 0
-3115 -4160 0
-3116 -3261 0
-3117 -3262 0
-3118 -3263 0
-3119 -3264 0
-3120 -3265 0
-3116 -3861 0
-3117 -3862 0
-3118 -3863 0
-3119 -3864 0
-3120 -3865 0
-3116 -4061 0
-3117 -4062 0
-3118 -4063 0
-3119 -4064 0
-3120 -4065 0
-3116 -4181 0
-3117 -4182 0
-3118 -4183 0
-3119 -4184 0
-3120 -4185 0
-3116 -4211 0
-3117 -4212 0
-3118 -4213 0
-3119 -4214 0
-3120 -4215 0
-3121 -3236 0
-3122 -3237 0
-3123 -3238 0
-3124 -3239 0
-3125 -3240 0
-3121 -3271 0
-3122 -3272 0
-3123 -3273 0
-3124 -3274 0
-3125 -3275 0
-3121 -3651 0
-3122 -3652 0
-3123 -3653 0
-3124 -3654 0
-3125 -3655 0
-3121 -3856 0
-3122 -3857 0
-3123 -3858 0
-3124 -3859 0
-3125 -3860 0
-3121 -4066 0
-3122 -4067 0
-3123 -4068 0
-3124 -4069 0
-3125 -4070 0
-3121 -4186 0
-3122 -4187 0
-3123 -4188 0
-3124 -4189 0
-3125 -4190 0
-3121 -4216 0
-3122 -4217 0
-3123 -4218 0
-3124 -4219 0
-3125 -4220 0
-3126 -3216 0
-3127 -3217 0
-3128 -3218 0
-3129 -3219 0
-3130 -3220 0
-3126 -3631 0
-3127 -3632 0
-3128 -3633 0
-3129 -3634 0
-3130 -3635 0
-3126 -3826 0
-3127 -3827 0
-3128 -3828 0
-3129 -3829 0
-3130 -3830 0
-3126 -3871 0
-3127 -3872 0
-3128 -3873 0
-3129 -3874 0
-3130 -3875 0
-3126 -4186 0
-3127 -4187 0
-3128 -4188 0
-3129 -4189 0
-3130 -4190 0
-3131 -3241 0
-3132 -3242 0
-3133 -3243 0
-3134 -3244 0
-3135 -3245 0
-3131 -3831 0
-3132 -3832 0
-3133 -3833 0
-3134 -3834 0
-3135 -3835 0
-3131 -3866 0
-3132 -3867 0
-3133 -3868 0
-3134 -3869 0
-3135 -3870 0
-3131 -4191 0
-3132 -4192 0
-3133 -4193 0
-3134 -4194 0
-3135 -4195 0
-3136 -3221 0
-3137 -3222 0
-3138 -3223 0
-3139 -3224 0
-3140 -3225 0
-3136 -3646 0
-3137 -3647 0
-3138 -3648 0
-3139 -3649 0
-3140 -3650 0
-3136 -3881 0
-3137 -3882 0
-3138 -3883 0
-3139 -3884 0
-3140 -3885 0
-3136 -4071 0
-3137 -4072 0
-3138 -4073 0
-3139 -4074 0
-3140 -4075 0
-3136 -4191 0
-3137 -4192 0
-3138 -4193 0
-3139 -4194 0
-3140 -4195 0
-3136 -4221 0
-3137 -4222 0
-3138 -4223 0
-3139 -4224 0
-3140 -4225 0
-3141 -3256 0
-3142 -3257 0
-3143 -3258 0
-3144 -3259 0
-3145 -3260 0
-3141 -3661 0
-3142 -3662 0
-3143 -3663 0
-3144 -3664 0
-3145 -3665 0
-3141 -3876 0
-3142 -3877 0
-3143 -3878 0
-3144 -3879 0
-3145 -3880 0
-3141 -4076 0
-3142 -4077 0
-3143 -4078 0
-3144 -4079 0
-3145 -4080 0
-3141 -4196 0
-3142 -4197 0
-3143 -4198 0
-3144 -4199 0
-3145 -4200 0
-3141 -4226 0
-3142 -4227 0
-3143 -4228 0
-3144 -4229 0
-3145 -4230 0
-3146 -3236 0
-3147 -3237 0
-3148 -3238 0
-3149 -3239 0
-3150 -3240 0
-3146 -3836 0
-3147 -3837 0
-3148 -3838 0
-3149 -3839 0
-3150 -3840 0
-3146 -3891 0
-3147 -3892 0
-3148 -3893 0
-3149 -3894 0
-3150 -3895 0
-3146 -4196 0
-3147 -4197 0
-3148 -4198 0
-3149 -4199 0
-3150 -4200 0
-3151 -3261 0
-3152 -3262 0
-3153 -3263 0
-3154 -3264 0
-3155 -3265 0
-3151 -3636 0
-3152 -3637 0
-3153 -3638 0
-3154 -3639 0
-3155 -3640 0
-3151 -3841 0
-3152 -3842 0
-3153 -3843 0
-3154 -3844 0
-3155 -3845 0
-3151 -3886 0
-3152 -3887 0
-3153 -3888 0
-3154 -3889 0
-3155 -3890 0
-3151 -4201 0
-3152 -4202 0
-3153 -4203 0
-3154 -4204 0
-3155 -4205 0
-3156 -3241 0
-3157 -3242 0
-3158 -3243 0
-3159 -3244 0
-3160 -3245 0
-3156 -3276 0
-3157 -3277 0
-3158 -3278 0
-3159 -3279 0
-3160 -3280 0
-3156 -3656 0
-3157 -3657 0
-3158 -3658 0
-3159 -3659 0
-3160 -3660 0
-3156 -3901 0
-3157 -3902 0
-3158 -3903 0
-3159 -3904 0
-3160 -3905 0
-3156 -4081 0
-3157 -4082 0
-3158 -4083 0
-3159 -4084 0
-3160 -4085 0
-3156 -4201 0
-3157 -4202 0
-3158 -4203 0
-3159 -4204 0
-3160 -4205 0
-3156 -4231 0
-3157 -4232 0
-3158 -4233 0
-3159 -4234 0
-3160 -4235 0
-3161 -3216 0
-3162 -3217 0
-3163 -3218 0
-3164 -3219 0
-3165 -3220 0
-3161 -3896 0
-3162 -3897 0
-3163 -3898 0
-3164 -3899 0
-3165 -3900 0
-3161 -4086 0
-3162 -4087 0
-3163 -4088 0
-3164 -4089 0
-3165 -4090 0
-3161 -4206 0
-3162 -4207 0
-3163 -4208 0
-3164 -4209 0
-3165 -4210 0
-3161 -4236 0
-3162 -4237 0
-3163 -4238 0
-3164 -4239 0
-3165 -4240 0
-3166 -3461 0
-3167 -3462 0
-3168 -3463 0
-3169 -3464 0
-3170 -3465 0
-3166 -3471 0
-3167 -3472 0
-3168 -3473 0
-3169 -3474 0
-3170 -3475 0
-3166 -3976 0
-3167 -3977 0
-3168 -3978 0
-3169 -3979 0
-3170 -3980 0
-3166 -4021 0
-3167 -4022 0
-3168 -4023 0
-3169 -4024 0
-3170 -4025 0
-3166 -4031 0
-3167 -4032 0
-3168 -4033 0
-3169 -4034 0
-3170 -4035 0
-3166 -4056 0
-3167 -4057 0
-3168 -4058 0
-3169 -4059 0
-3170 -4060 0
-3171 -3461 0
-3172 -3462 0
-3173 -3463 0
-3174 -3464 0
-3175 -3465 0
-3171 -3466 0
-3172 -3467 0
-3173 -3468 0
-3174 -3469 0
-3175 -3470 0
-3171 -3981 0
-3172 -3982 0
-3173 -3983 0
-3174 -3984 0
-3175 -3985 0
-3171 -3996 0
-3172 -3997 0
-3173 -3998 0
-3174 -3999 0
-3175 -4000 0
-3171 -4036 0
-3172 -4037 0
-3173 -4038 0
-3174 -4039 0
-3175 -4040 0
-3171 -4041 0
-3172 -4042 0
-3173 -4043 0
-3174 -4044 0
-3175 -4045 0
-3176 -3466 0
-3177 -3467 0
-3178 -3468 0
-3179 -3469 0
-3180 -3470 0
-3176 -3471 0
-3177 -3472 0
-3178 -3473 0
-3179 -3474 0
-3180 -3475 0
-3176 -4001 0
-3177 -4002 0
-3178 -4003 0
-3179 -4004 0
-3180 -4005 0
-3176 -4016 0
-3177 -4017 0
-3178 -4018 0
-3179 -4019 0
-3180 -4020 0
-3176 -4046 0
-3177 -4047 0
-3178 -4048 0
-3179 -4049 0
-3180 -4050 0
-3176 -4051 0
-3177 -4052 0
-3178 -4053 0
-3179 -4054 0
-3180 -4055 0
-3181 -3316 0
-3182 -3317 0
-3183 -3318 0
-3184 -3319 0
-3185 -3320 0
-3181 -3391 0
-3182 -3392 0
-3183 -3393 0
-3184 -3394 0
-3185 -3395 0
-3181 -3776 0
-3182 -3777 0
-3183 -3778 0
-3184 -3779 0
-3185 -3780 0
-3181 -4211 0
-3182 -4212 0
-3183 -4213 0
-3184 -4214 0
-3185 -4215 0
-3186 -3281 0
-3187 -3282 0
-3188 -3283 0
-3189 -3284 0
-3190 -3285 0
-3186 -3326 0
-3187 -3327 0
-3188 -3328 0
-3189 -3329 0
-3190 -3330 0
-3186 -3771 0
-3187 -3772 0
-3188 -3773 0
-3189 -3774 0
-3190 -3775 0
-3186 -3781 0
-3187 -3782 0
-3188 -3783 0
-3189 -3784 0
-3190 -3785 0
-3186 -4216 0
-3187 -4217 0
-3188 -4218 0
-3189 -4219 0
-3190 -4220 0
-3191 -3311 0
-3192 -3312 0
-3193 -3313 0
-3194 -3314 0
-3195 -3315 0
-3191 -3356 0
-3192 -3357 0
-3193 -3358 0
-3194 -3359 0
-3195 -3360 0
-3191 -3786 0
-3192 -3787 0
-3193 -3788 0
-3194 -3789 0
-3195 -3790 0
-3191 -3796 0
-3192 -3797 0
-3193 -3798 0
-3194 -3799 0
-3195 -3800 0
-3191 -4221 0
-3192 -4222 0
-3193 -4223 0
-3194 -4224 0
-3195 -4225 0
-3196 -3321 0
-3197 -3322 0
-3198 -3323 0
-3199 -3324 0
-3200 -3325 0
-3196 -3366 0
-3197 -3367 0
-3198 -3368 0
-3199 -3369 0
-3200 -3370 0
-3196 -3791 0
-3197 -3792 0
-3198 -3793 0
-3199 -3794 0
-3200 -3795 0
-3196 -3801 0
-3197 -3802 0
-3198 -3803 0
-3199 -3804 0
-3200 -3805 0
-3196 -4226 0
-3197 -4227 0
-3198 -4228 0
-3199 -4229 0
-3200 -4230 0
-3201 -3351 0
-3202 -3352 0
-3203 -3353 0
-3204 -3354 0
-3205 -3355 0
-3201 -3396 0
-3202 -3397 0
-3203 -3398 0
-3204 -3399 0
-3205 -3400 0
-3201 -3806 0
-3202 -3807 0
-3203 -3808 0
-3204 -3809 0
-3205 -3810 0
-3201 -3816 0
-3202 -3817 0
-3203 -3818 0
-3204 -3819 0
-3205 -3820 0
-3201 -4231 0
-3202 -4232 0
-3203 -4233 0
-3204 -4234 0
-3205 -4235 0
-3206 -3286 0
-3207 -3287 0
-3208 -3288 0
-3209 -3289 0
-3210 -3290 0
-3206 -3361 0
-3207 -3362 0
-3208 -3363 0
-3209 -3364 0
-3210 -3365 0
-3206 -3811 0
-3207 -3812 0
-3208 -3813 0
-3209 -3814 0
-3210 -3815 0
-3206 -4236 0
-3207 -4237 0
-3208 -4238 0
-3209 -4239 0
-3210 -4240 0
-3211 -3411 0
-3212 -3412 0
-3213 -3413 0
-3214 -3414 0
-3215 -3415 0
-3211 -3451 0
-3212 -3452 0
-3213 -3453 0
-3214 -3454 0
-3215 -3455 0
-3211 -3681 0
-3212 -3682 0
-3213 -3683 0
-3214 -3684 0
-3215 -3685 0
-3211 -3816 0
-3212 -3817 0
-3213 -3818 0
-3214 -3819 0
-3215 -3820 0
-3211 -4211 0
-3212 -4212 0
-3213 -4213 0
-3214 -4214 0
-3215 -4215 0
-3211 -4241 0
-3212 -4242 0
-3213 -4243 0
-3214 -4244 0
-3215 -4245 0
-3216 -3416 0
-3217 -3417 0
-3218 -3418 0
-3219 -3419 0
-3220 -3420 0
-3216 -3456 0
-3217 -3457 0
-3218 -3458 0
-3219 -3459 0
-3220 -3460 0
-3216 -3746 0
-3217 -3747 0
-3218 -3748 0
-3219 -3749 0
-3220 -3750 0
-3216 -4066 0
-3217 -4067 0
-3218 -4068 0
-3219 -4069 0
-3220 -4070 0
-3221 -3401 0
-3222 -3402 0
-3223 -3403 0
-3224 -3404 0
-3225 -3405 0
-3221 -3421 0
-3222 -3422 0
-3223 -3423 0
-3224 -3424 0
-3225 -3425 0
-3221 -3701 0
-3222 -3702 0
-3223 -3703 0
-3224 -3704 0
-3225 -3705 0
-3221 -3786 0
-3222 -3787 0
-3223 -3788 0
-3224 -3789 0
-3225 -3790 0
-3221 -4061 0
-3222 -4062 0
-3223 -4063 0
-3224 -4064 0
-3225 -4065 0
-3226 -3406 0
-3227 -3407 0
-3228 -3408 0
-3229 -3409 0
-3230 -3410 0
-3226 -3426 0
-3227 -3427 0
-3228 -3428 0
-3229 -3429 0
-3230 -3430 0
-3226 -3676 0
-3227 -3677 0
-3228 -3678 0
-3229 -3679 0
-3230 -3680 0
-3226 -3791 0
-3227 -3792 0
-3228 -3793 0
-3229 -3794 0
-3230 -3795 0
-3226 -4216 0
-3227 -4217 0
-3228 -4218 0
-3229 -4219 0
-3230 -4220 0
-3226 -4246 0
-3227 -4247 0
-3228 -4248 0
-3229 -4249 0
-3230 -4250 0
-3231 -3411 0
-3232 -3412 0
-3233 -3413 0
-3234 -3414 0
-3235 -3415 0
-3231 -3431 0
-3232 -3432 0
-3233 -3433 0
-3234 -3434 0
-3235 -3435 0
-3231 -3711 0
-3232 -3712 0
-3233 -3713 0
-3234 -3714 0
-3235 -3715 0
-3231 -3776 0
-3232 -3777 0
-3233 -3778 0
-3234 -3779 0
-3235 -3780 0
-3231 -4221 0
-3232 -4222 0
-3233 -4223 0
-3234 -4224 0
-3235 -4225 0
-3236 -3416 0
-3237 -3417 0
-3238 -3418 0
-3239 -3419 0
-3240 -3420 0
-3236 -3436 0
-3237 -3437 0
-3238 -3438 0
-3239 -3439 0
-3240 -3440 0
-3236 -3686 0
-3237 -3687 0
-3238 -3688 0
-3239 -3689 0
-3240 -3690 0
-3236 -3781 0
-3237 -3782 0
-3238 -3783 0
-3239 -3784 0
-3240 -3785 0
-3236 -4076 0
-3237 -4077 0
-3238 -4078 0
-3239 -4079 0
-3240 -4080 0
-3241 -3421 0
-3242 -3422 0
-3243 -3423 0
-3244 -3424 0
-3245 -3425 0
-3241 -3441 0
-3242 -3442 0
-3243 -3443 0
-3244 -3444 0
-3245 -3445 0
-3241 -3731 0
-3242 -3732 0
-3243 -3733 0
-3244 -3734 0
-3245 -3735 0
-3241 -3806 0
-3242 -3807 0
-3243 -3808 0
-3244 -3809 0
-3245 -3810 0
-3241 -4071 0
-3242 -4072 0
-3243 -4073 0
-3244 -4074 0
-3245 -4075 0
-3246 -3426 0
-3247 -3427 0
-3248 -3428 0
-3249 -3429 0
-3250 -3430 0
-3246 -3446 0
-3247 -3447 0
-3248 -3448 0
-3249 -3449 0
-3250 -3450 0
-3246 -3706 0
-3247 -3707 0
-3248 -3708 0
-3249 -3709 0
-3250 -3710 0
-3246 -3811 0
-3247 -3812 0
-3248 -3813 0
-3249 -3814 0
-3250 -3815 0
-3246 -4226 0
-3247 -4227 0
-3248 -4228 0
-3249 -4229 0
-3250 -4230 0
-3251 -3431 0
-3252 -3432 0
-3253 -3433 0
-3254 -3434 0
-3255 -3435 0
-3251 -3451 0
-3252 -3452 0
-3253 -3453 0
-3254 -3454 0
-3255 -3455 0
-3251 -3741 0
-3252 -3742 0
-3253 -3743 0
-3254 -3744 0
-3255 -3745 0
-3251 -3796 0
-3252 -3797 0
-3253 -3798 0
-3254 -3799 0
-3255 -3800 0
-3251 -4231 0
-3252 -4232 0
-3253 -4233 0
-3254 -4234 0
-3255 -4235 0
-3251 -4251 0
-3252 -4252 0
-3253 -4253 0
-3254 -4254 0
-3255 -4255 0
-3256 -3436 0
-3257 -3437 0
-3258 -3438 0
-3259 -3439 0
-3260 -3440 0
-3256 -3456 0
-3257 -3457 0
-3258 -3458 0
-3259 -3459 0
-3260 -3460 0
-3256 -3716 0
-3257 -3717 0
-3258 -3718 0
-3259 -3719 0
-3260 -3720 0
-3256 -3801 0
-3257 -3802 0
-3258 -3803 0
-3259 -3804 0
-3260 -3805 0
-3256 -4086 0
-3257 -4087 0
-3258 -4088 0
-3259 -4089 0
-3260 -4090 0
-3261 -3401 0
-3262 -3402 0
-3263 -3403 0
-3264 -3404 0
-3265 -3405 0
-3261 -3441 0
-3262 -3442 0
-3263 -3443 0
-3264 -3444 0
-3265 -3445 0
-3261 -3671 0
-3262 -3672 0
-3263 -3673 0
-3264 -3674 0
-3265 -3675 0
-3261 -4081 0
-3262 -4082 0
-3263 -4083 0
-3264 -4084 0
-3265 -4085 0
-3266 -3406 0
-3267 -3407 0
-3268 -3408 0
-3269 -3409 0
-3270 -3410 0
-3266 -3446 0
-3267 -3447 0
-3268 -3448 0
-3269 -3449 0
-3270 -3450 0
-3266 -3736 0
-3267 -3737 0
-3268 -3738 0
-3269 -3739 0
-3270 -3740 0
-3266 -3771 0
-3267 -3772 0
-3268 -3773 0
-3269 -3774 0
-3270 -3775 0
-3266 -4236 0
-3267 -4237 0
-3268 -4238 0
-3269 -4239 0
-3270 -4240 0
-3266 -4256 0
-3267 -4257 0
-3268 -4258 0
-3269 -4259 0
-3270 -4260 0
-3271 -3826 0
-3272 -3827 0
-3273 -3828 0
-3274 -3829 0
-3275 -3830 0
-3271 -3966 0
-3272 -3967 0
-3273 -3968 0
-3274 -3969 0
-3275 -3970 0
-3276 -3841 0
-3277 -3842 0
-3278 -3843 0
-3279 -3844 0
-3280 -3845 0
-3276 -3911 0
-3277 -3912 0
-3278 -3913 0
-3279 -3914 0
-3280 -3915 0
-3281 -3461 0
-3282 -3462 0
-3283 -3463 0
-3284 -3464 0
-3285 -3465 0
-3281 -3526 0
-3282 -3527 0
-3283 -3528 0
-3284 -3529 0
-3285 -3530 0
-3281 -3856 0
-3282 -3857 0
-3283 -3858 0
-3284 -3859 0
-3285 -3860 0
-3281 -4021 0
-3282 -4022 0
-3283 -4023 0
-3284 -4024 0
-3285 -4025 0
-3281 -4206 0
-3282 -4207 0
-3283 -4208 0
-3284 -4209 0
-3285 -4210 0
-3281 -4321 0
-3282 -4322 0
-3283 -4323 0
-3284 -4324 0
-3285 -4325 0
-3286 -3301 0
-3287 -3302 0
-3288 -3303 0
-3289 -3304 0
-3290 -3305 0
-3286 -3381 0
-3287 -3382 0
-3288 -3383 0
-3289 -3384 0
-3290 -3385 0
-3286 -3486 0
-3287 -3487 0
-3288 -3488 0
-3289 -3489 0
-3290 -3490 0
-3286 -3756 0
-3287 -3757 0
-3288 -3758 0
-3289 -3759 0
-3290 -3760 0
-3286 -3906 0
-3287 -3907 0
-3288 -3908 0
-3289 -3909 0
-3290 -3910 0
-3286 -4101 0
-3287 -4102 0
-3288 -4103 0
-3289 -4104 0
-3290 -4105 0
-3286 -4176 0
-3287 -4177 0
-3288 -4178 0
-3289 -4179 0
-3290 -4180 0
-3286 -4256 0
-3287 -4257 0
-3288 -4258 0
-3289 -4259 0
-3290 -4260 0
-3286 -4276 0
-3287 -4277 0
-3288 -4278 0
-3289 -4279 0
-3290 -4280 0
-3286 -4281 0
-3287 -4282 0
-3288 -4283 0
-3289 -4284 0
-3290 -4285 0
-3286 -4326 0
-3287 -4327 0
-3288 -4328 0
-3289 -4329 0
-3290 -4330 0
-3291 -3306 0
-3292 -3307 0
-3293 -3308 0
-3294 -3309 0
-3295 -3310 0
-3291 -3386 0
-3292 -3387 0
-3293 -3388 0
-3294 -3389 0
-3295 -3390 0
-3291 -3861 0
-3292 -3862 0
-3293 -3863 0
-3294 -3864 0
-3295 -3865 0
-3291 -4026 0
-3292 -4027 0
-3293 -4028 0
-3294 -4029 0
-3295 -4030 0
-3291 -4091 0
-3292 -4092 0
-3293 -4093 0
-3294 -4094 0
-3295 -4095 0
-3291 -4106 0
-3292 -4107 0
-3293 -4108 0
-3294 -4109 0
-3295 -4110 0
-3291 -4241 0
-3292 -4242 0
-3293 -4243 0
-3294 -4244 0
-3295 -4245 0
-3291 -4281 0
-3292 -4282 0
-3293 -4283 0
-3294 -4284 0
-3295 -4285 0
-3296 -3311 0
-3297 -3312 0
-3298 -3313 0
-3299 -3314 0
-3300 -3315 0
-3296 -3391 0
-3297 -3392 0
-3298 -3393 0
-3299 -3394 0
-3300 -3395 0
-3296 -3531 0
-3297 -3532 0
-3298 -3533 0
-3299 -3534 0
-3300 -3535 0
-3296 -3646 0
-3297 -3647 0
-3298 -3648 0
-3299 -3649 0
-3300 -3650 0
-3296 -3866 0
-3297 -3867 0
-3298 -3868 0
-3299 -3869 0
-3300 -3870 0
-3296 -3971 0
-3297 -3972 0
-3298 -3973 0
-3299 -3974 0
-3300 -3975 0
-3296 -3981 0
-3297 -3982 0
-3298 -3983 0
-3299 -3984 0
-3300 -3985 0
-3296 -4096 0
-3297 -4097 0
-3298 -4098 0
-3299 -4099 0
-3300 -4100 0
-3296 -4111 0
-3297 -4112 0
-3298 -4113 0
-3299 -4114 0
-3300 -4115 0
-3296 -4181 0
-3297 -4182 0
-3298 -4183 0
-3299 -4184 0
-3300 -4185 0
-3296 -4261 0
-3297 -4262 0
-3298 -4263 0
-3299 -4264 0
-3300 -4265 0
-3296 -4331 0
-3297 -4332 0
-3298 -4333 0
-3299 -4334 0
-3300 -4335 0
-3301 -3326 0
-3302 -3327 0
-3303 -3328 0
-3304 -3329 0
-3305 -3330 0
-3301 -3496 0
-3302 -3497 0
-3303 -3498 0
-3304 -3499 0
-3305 -3500 0
-3301 -3851 0
-3302 -3852 0
-3303 -3853 0
-3304 -3854 0
-3305 -3855 0
-3301 -3976 0
-3302 -3977 0
-3303 -3978 0
-3304 -3979 0
-3305 -3980 0
-3301 -3986 0
-3302 -3987 0
-3303 -3988 0
-3304 -3989 0
-3305 -3990 0
-3301 -4101 0
-3302 -4102 0
-3303 -4103 0
-3304 -4104 0
-3305 -4105 0
-3301 -4116 0
-3302 -4117 0
-3303 -4118 0
-3304 -4119 0
-3305 -4120 0
-3301 -4186 0
-3302 -4187 0
-3303 -4188 0
-3304 -4189 0
-3305 -4190 0
-3301 -4261 0
-3302 -4262 0
-3303 -4263 0
-3304 -4264 0
-3305 -4265 0
-3301 -4336 0
-3302 -4337 0
-3303 -4338 0
-3304 -4339 0
-3305 -4340 0
-3306 -3331 0
-3307 -3332 0
-3308 -3333 0
-3309 -3334 0
-3310 -3335 0
-3306 -3651 0
-3307 -3652 0
-3308 -3653 0
-3309 -3654 0
-3310 -3655 0
-3306 -3856 0
-3307 -3857 0
-3308 -3858 0
-3309 -3859 0
-3310 -3860 0
-3306 -3991 0
-3307 -3992 0
-3308 -3993 0
-3309 -3994 0
-3310 -3995 0
-3306 -4106 0
-3307 -4107 0
-3308 -4108 0
-3309 -4109 0
-3310 -4110 0
-3306 -4121 0
-3307 -4122 0
-3308 -4123 0
-3309 -4124 0
-3310 -4125 0
-3306 -4246 0
-3307 -4247 0
-3308 -4248 0
-3309 -4249 0
-3310 -4250 0
-3306 -4286 0
-3307 -4287 0
-3308 -4288 0
-3309 -4289 0
-3310 -4290 0
-3311 -3336 0
-3312 -3337 0
-3313 -3338 0
-3314 -3339 0
-3315 -3340 0
-3311 -3481 0
-3312 -3482 0
-3313 -3483 0
-3314 -3484 0
-3315 -3485 0
-3311 -3756 0
-3312 -3757 0
-3313 -3758 0
-3314 -3759 0
-3315 -3760 0
-3311 -3871 0
-3312 -3872 0
-3313 -3873 0
-3314 -3874 0
-3315 -3875 0
-3311 -4111 0
-3312 -4112 0
-3313 -4113 0
-3314 -4114 0
-3315 -4115 0
-3311 -4126 0
-3312 -4127 0
-3313 -4128 0
-3314 -4129 0
-3315 -4130 0
-3311 -4286 0
-3312 -4287 0
-3313 -4288 0
-3314 -4289 0
-3315 -4290 0
-3311 -4341 0
-3312 -4342 0
-3313 -4343 0
-3314 -4344 0
-3315 -4345 0
-3316 -3461 0
-3317 -3462 0
-3318 -3463 0
-3319 -3464 0
-3320 -3465 0
-3316 -3501 0
-3317 -3502 0
-3318 -3503 0
-3319 -3504 0
-3320 -3505 0
-3316 -3861 0
-3317 -3862 0
-3318 -3863 0
-3319 -3864 0
-3320 -3865 0
-3316 -3996 0
-3317 -3997 0
-3318 -3998 0
-3319 -3999 0
-3320 -4000 0
-3316 -4191 0
-3317 -4192 0
-3318 -4193 0
-3319 -4194 0
-3320 -4195 0
-3316 -4291 0
-3317 -4292 0
-3318 -4293 0
-3319 -4294 0
-3320 -4295 0
-3321 -3466 0
-3322 -3467 0
-3323 -3468 0
-3324 -3469 0
-3325 -3470 0
-3321 -3486 0
-3322 -3487 0
-3323 -3488 0
-3324 -3489 0
-3325 -3490 0
-3321 -3876 0
-3322 -3877 0
-3323 -3878 0
-3324 -3879 0
-3325 -3880 0
-3321 -3981 0
-3322 -3982 0
-3323 -3983 0
-3324 -3984 0
-3325 -3985 0
-3321 -4186 0
-3322 -4187 0
-3323 -4188 0
-3324 -4189 0
-3325 -4190 0
-3326 -3341 0
-3327 -3342 0
-3328 -3343 0
-3329 -3344 0
-3330 -3345 0
-3326 -3506 0
-3327 -3507 0
-3328 -3508 0
-3329 -3509 0
-3330 -3510 0
-3326 -3761 0
-3327 -3762 0
-3328 -3763 0
-3329 -3764 0
-3330 -3765 0
-3326 -3866 0
-3327 -3867 0
-3328 -3868 0
-3329 -3869 0
-3330 -3870 0
-3326 -4116 0
-3327 -4117 0
-3328 -4118 0
-3329 -4119 0
-3330 -4120 0
-3326 -4131 0
-3327 -4132 0
-3328 -4133 0
-3329 -4134 0
-3330 -4135 0
-3326 -4246 0
-3327 -4247 0
-3328 -4248 0
-3329 -4249 0
-3330 -4250 0
-3326 -4291 0
-3327 -4292 0
-3328 -4293 0
-3329 -4294 0
-3330 -4295 0
-3326 -4296 0
-3327 -4297 0
-3328 -4298 0
-3329 -4299 0
-3330 -4300 0
-3326 -4346 0
-3327 -4347 0
-3328 -4348 0
-3329 -4349 0
-3330 -4350 0
-3331 -3346 0
-3332 -3347 0
-3333 -3348 0
-3334 -3349 0
-3335 -3350 0
-3331 -3646 0
-3332 -3647 0
-3333 -3648 0
-3334 -3649 0
-3335 -3650 0
-3331 -3881 0
-3332 -3882 0
-3333 -3883 0
-3334 -3884 0
-3335 -3885 0
-3331 -3986 0
-3332 -3987 0
-3333 -3988 0
-3334 -3989 0
-3335 -3990 0
-3331 -4121 0
-3332 -4122 0
-3333 -4123 0
-3334 -4124 0
-3335 -4125 0
-3331 -4136 0
-3332 -4137 0
-3333 -4138 0
-3334 -4139 0
-3335 -4140 0
-3331 -4296 0
-3332 -4297 0
-3333 -4298 0
-3334 -4299 0
-3335 -4300 0
-3336 -3351 0
-3337 -3352 0
-3338 -3353 0
-3339 -3354 0
-3340 -3355 0
-3336 -3491 0
-3337 -3492 0
-3338 -3493 0
-3339 -3494 0
-3340 -3495 0
-3336 -3656 0
-3337 -3657 0
-3338 -3658 0
-3339 -3659 0
-3340 -3660 0
-3336 -3886 0
-3337 -3887 0
-3338 -3888 0
-3339 -3889 0
-3340 -3890 0
-3336 -3991 0
-3337 -3992 0
-3338 -3993 0
-3339 -3994 0
-3340 -3995 0
-3336 -4001 0
-3337 -4002 0
-3338 -4003 0
-3339 -4004 0
-3340 -4005 0
-3336 -4126 0
-3337 -4127 0
-3338 -4128 0
-3339 -4129 0
-3340 -4130 0
-3336 -4141 0
-3337 -4142 0
-3338 -4143 0
-3339 -4144 0
-3340 -4145 0
-3336 -4191 0
-3337 -4192 0
-3338 -4193 0
-3339 -4194 0
-3340 -4195 0
-3336 -4266 0
-3337 -4267 0
-3338 -4268 0
-3339 -4269 0
-3340 -4270 0
-3336 -4351 0
-3337 -4352 0
-3338 -4353 0
-3339 -4354 0
-3340 -4355 0
-3341 -3366 0
-3342 -3367 0
-3343 -3368 0
-3344 -3369 0
-3345 -3370 0
-3341 -3516 0
-3342 -3517 0
-3343 -3518 0
-3344 -3519 0
-3345 -3520 0
-3341 -3651 0
-3342 -3652 0
-3343 -3653 0
-3344 -3654 0
-3345 -3655 0
-3341 -3871 0
-3342 -3872 0
-3343 -3873 0
-3344 -3874 0
-3345 -3875 0
-3341 -3996 0
-3342 -3997 0
-3343 -3998 0
-3344 -3999 0
-3345 -4000 0
-3341 -4006 0
-3342 -4007 0
-3343 -4008 0
-3344 -4009 0
-3345 -4010 0
-3341 -4131 0
-3342 -4132 0
-3343 -4133 0
-3344 -4134 0
-3345 -4135 0
-3341 -4146 0
-3342 -4147 0
-3343 -4148 0
-3344 -4149 0
-3345 -4150 0
-3341 -4196 0
-3342 -4197 0
-3343 -4198 0
-3344 -4199 0
-3345 -4200 0
-3341 -4266 0
-3342 -4267 0
-3343 -4268 0
-3344 -4269 0
-3345 -4270 0
-3341 -4356 0
-3342 -4357 0
-3343 -4358 0
-3344 -4359 0
-3345 -4360 0
-3346 -3371 0
-3347 -3372 0
-3348 -3373 0
-3349 -3374 0
-3350 -3375 0
-3346 -3661 0
-3347 -3662 0
-3348 -3663 0
-3349 -3664 0
-3350 -3665 0
-3346 -3876 0
-3347 -3877 0
-3348 -3878 0
-3349 -3879 0
-3350 -3880 0
-3346 -4011 0
-3347 -4012 0
-3348 -4013 0
-3349 -4014 0
-3350 -4015 0
-3346 -4136 0
-3347 -4137 0
-3348 -4138 0
-3349 -4139 0
-3350 -4140 0
-3346 -4151 0
-3347 -4152 0
-3348 -4153 0
-3349 -4154 0
-3350 -4155 0
-3346 -4301 0
-3347 -4302 0
-3348 -4303 0
-3349 -4304 0
-3350 -4305 0
-3351 -3376 0
-3352 -3377 0
-3353 -3378 0
-3354 -3379 0
-3355 -3380 0
-3351 -3501 0
-3352 -3502 0
-3353 -3503 0
-3354 -3504 0
-3355 -3505 0
-3351 -3761 0
-3352 -3762 0
-3353 -3763 0
-3354 -3764 0
-3355 -3765 0
-3351 -3891 0
-3352 -3892 0
-3353 -3893 0
-3354 -3894 0
-3355 -3895 0
-3351 -4141 0
-3352 -4142 0
-3353 -4143 0
-3354 -4144 0
-3355 -4145 0
-3351 -4156 0
-3352 -4157 0
-3353 -4158 0
-3354 -4159 0
-3355 -4160 0
-3351 -4251 0
-3352 -4252 0
-3353 -4253 0
-3354 -4254 0
-3355 -4255 0
-3351 -4301 0
-3352 -4302 0
-3353 -4303 0
-3354 -4304 0
-3355 -4305 0
-3351 -4306 0
-3352 -4307 0
-3353 -4308 0
-3354 -4309 0
-3355 -4310 0
-3351 -4361 0
-3352 -4362 0
-3353 -4363 0
-3354 -4364 0
-3355 -4365 0
-3356 -3466 0
-3357 -3467 0
-3358 -3468 0
-3359 -3469 0
-3360 -3470 0
-3356 -3521 0
-3357 -3522 0
-3358 -3523 0
-3359 -3524 0
-3360 -3525 0
-3356 -3881 0
-3357 -3882 0
-3358 -3883 0
-3359 -3884 0
-3360 -3885 0
-3356 -4016 0
-3357 -4017 0
-3358 -4018 0
-3359 -4019 0
-3360 -4020 0
-3356 -4201 0
-3357 -4202 0
-3358 -4203 0
-3359 -4204 0
-3360 -4205 0
-3361 -3471 0
-3362 -3472 0
-3363 -3473 0
-3364 -3474 0
-3365 -3475 0
-3361 -3506 0
-3362 -3507 0
-3363 -3508 0
-3364 -3509 0
-3365 -3510 0
-3361 -3896 0
-3362 -3897 0
-3363 -3898 0
-3364 -3899 0
-3365 -3900 0
-3361 -4001 0
-3362 -4002 0
-3363 -4003 0
-3364 -4004 0
-3365 -4005 0
-3361 -4196 0
-3362 -4197 0
-3363 -4198 0
-3364 -4199 0
-3365 -4200 0
-3361 -4306 0
-3362 -4307 0
-3363 -4308 0
-3364 -4309 0
-3365 -4310 0
-3366 -3381 0
-3367 -3382 0
-3368 -3383 0
-3369 -3384 0
-3370 -3385 0
-3366 -3526 0
-3367 -3527 0
-3368 -3528 0
-3369 -3529 0
-3370 -3530 0
-3366 -3766 0
-3367 -3767 0
-3368 -3768 0
-3369 -3769 0
-3370 -3770 0
-3366 -3886 0
-3367 -3887 0
-3368 -3888 0
-3369 -3889 0
-3370 -3890 0
-3366 -4146 0
-3367 -4147 0
-3368 -4148 0
-3369 -4149 0
-3370 -4150 0
-3366 -4161 0
-3367 -4162 0
-3368 -4163 0
-3369 -4164 0
-3370 -4165 0
-3366 -4311 0
-3367 -4312 0
-3368 -4313 0
-3369 -4314 0
-3370 -4315 0
-3366 -4366 0
-3367 -4367 0
-3368 -4368 0
-3369 -4369 0
-3370 -4370 0
-3371 -3386 0
-3372 -3387 0
-3373 -3388 0
-3374 -3389 0
-3375 -3390 0
-3371 -3656 0
-3372 -3657 0
-3373 -3658 0
-3374 -3659 0
-3375 -3660 0
-3371 -3901 0
-3372 -3902 0
-3373 -3903 0
-3374 -3904 0
-3375 -3905 0
-3371 -4006 0
-3372 -4007 0
-3373 -4008 0
-3374 -4009 0
-3375 -4010 0
-3371 -4151 0
-3372 -4152 0
-3373 -4153 0
-3374 -4154 0
-3375 -4155 0
-3371 -4166 0
-3372 -4167 0
-3373 -4168 0
-3374 -4169 0
-3375 -4170 0
-3371 -4251 0
-3372 -4252 0
-3373 -4253 0
-3374 -4254 0
-3375 -4255 0
-3371 -4311 0
-3372 -4312 0
-3373 -4313 0
-3374 -4314 0
-3375 -4315 0
-3376 -3391 0
-3377 -3392 0
-3378 -3393 0
-3379 -3394 0
-3380 -3395 0
-3376 -3511 0
-3377 -3512 0
-3378 -3513 0
-3379 -3514 0
-3380 -3515 0
-3376 -3906 0
-3377 -3907 0
-3378 -3908 0
-3379 -3909 0
-3380 -3910 0
-3376 -4011 0
-3377 -4012 0
-3378 -4013 0
-3379 -4014 0
-3380 -4015 0
-3376 -4021 0
-3377 -4022 0
-3378 -4023 0
-3379 -4024 0
-3380 -4025 0
-3376 -4156 0
-3377 -4157 0
-3378 -4158 0
-3379 -4159 0
-3380 -4160 0
-3376 -4171 0
-3377 -4172 0
-3378 -4173 0
-3379 -4174 0
-3380 -4175 0
-3376 -4201 0
-3377 -4202 0
-3378 -4203 0
-3379 -4204 0
-3380 -4205 0
-3376 -4271 0
-3377 -4272 0
-3378 -4273 0
-3379 -4274 0
-3380 -4275 0
-3376 -4371 0
-3377 -4372 0
-3378 -4373 0
-3379 -4374 0
-3380 -4375 0
-3381 -3476 0
-3382 -3477 0
-3383 -3478 0
-3384 -3479 0
-3385 -3480 0
-3381 -3661 0
-3382 -3662 0
-3383 -3663 0
-3384 -3664 0
-3385 -3665 0
-3381 -3891 0
-3382 -3892 0
-3383 -3893 0
-3384 -3894 0
-3385 -3895 0
-3381 -4016 0
-3382 -4017 0
-3383 -4018 0
-3384 -4019 0
-3385 -4020 0
-3381 -4026 0
-3382 -4027 0
-3383 -4028 0
-3384 -4029 0
-3385 -4030 0
-3381 -4161 0
-3382 -4162 0
-3383 -4163 0
-3384 -4164 0
-3385 -4165 0
-3381 -4176 0
-3382 -4177 0
-3383 -4178 0
-3384 -4179 0
-3385 -4180 0
-3381 -4206 0
-3382 -4207 0
-3383 -4208 0
-3384 -4209 0
-3385 -4210 0
-3381 -4271 0
-3382 -4272 0
-3383 -4273 0
-3384 -4274 0
-3385 -4275 0
-3381 -4376 0
-3382 -4377 0
-3383 -4378 0
-3384 -4379 0
-3385 -4380 0
-3386 -3896 0
-3387 -3897 0
-3388 -3898 0
-3389 -3899 0
-3390 -3900 0
-3386 -3971 0
-3387 -3972 0
-3388 -3973 0
-3389 -3974 0
-3390 -3975 0
-3386 -4091 0
-3387 -4092 0
-3388 -4093 0
-3389 -4094 0
-3390 -4095 0
-3386 -4166 0
-3387 -4167 0
-3388 -4168 0
-3389 -4169 0
-3390 -4170 0
-3386 -4256 0
-3387 -4257 0
-3388 -4258 0
-3389 -4259 0
-3390 -4260 0
-3386 -4316 0
-3387 -4317 0
-3388 -4318 0
-3389 -4319 0
-3390 -4320 0
-3391 -3521 0
-3392 -3522 0
-3393 -3523 0
-3394 -3524 0
-3395 -3525 0
-3391 -3766 0
-3392 -3767 0
-3393 -3768 0
-3394 -3769 0
-3395 -3770 0
-3391 -3851 0
-3392 -3852 0
-3393 -3853 0
-3394 -3854 0
-3395 -3855 0
-3391 -4096 0
-3392 -4097 0
-3393 -4098 0
-3394 -4099 0
-3395 -4100 0
-3391 -4171 0
-3392 -4172 0
-3393 -4173 0
-3394 -4174 0
-3395 -4175 0
-3391 -4241 0
-3392 -4242 0
-3393 -4243 0
-3394 -4244 0
-3395 -4245 0
-3391 -4316 0
-3392 -4317 0
-3393 -4318 0
-3394 -4319 0
-3395 -4320 0
-3391 -4321 0
-3392 -4322 0
-3393 -4323 0
-3394 -4324 0
-3395 -4325 0
-3391 -4381 0
-3392 -4382 0
-3393 -4383 0
-3394 -4384 0
-3395 -4385 0
-3396 -3471 0
-3397 -3472 0
-3398 -3473 0
-3399 -3474 0
-3400 -3475 0
-3396 -3481 0
-3397 -3482 0
-3398 -3483 0
-3399 -3484 0
-3400 -3485 0
-3396 -3901 0
-3397 -3902 0
-3398 -3903 0
-3399 -3904 0
-3400 -3905 0
-3396 -3976 0
-3397 -3977 0
-3398 -3978 0
-3399 -3979 0
-3400 -3980 0
-3396 -4181 0
-3397 -4182 0
-3398 -4183 0
-3399 -4184 0
-3400 -4185 0
-3396 -4276 0
-3397 -4277 0
-3398 -4278 0
-3399 -4279 0
-3400 -4280 0
-3401 -3816 0
-3402 -3817 0
-3403 -3818 0
-3404 -3819 0
-3405 -3820 0
-3401 -3966 0
-3402 -3967 0
-3403 -3968 0
-3404 -3969 0
-3405 -3970 0
-3401 -4061 0
-3402 -4062 0
-3403 -4063 0
-3404 -4064 0
-3405 -4065 0
-3401 -4276 0
-3402 -4277 0
-3403 -4278 0
-3404 -4279 0
-3405 -4280 0
-3406 -3921 0
-3407 -3922 0
-3408 -3923 0
-3409 -3924 0
-3410 -3925 0
-3406 -4281 0
-3407 -4282 0
-3408 -4283 0
-3409 -4284 0
-3410 -4285 0
-3411 -3786 0
-3412 -3787 0
-3413 -3788 0
-3414 -3789 0
-3415 -3790 0
-3411 -3916 0
-3412 -3917 0
-3413 -3918 0
-3414 -3919 0
-3415 -3920 0
-3411 -4286 0
-3412 -4287 0
-3413 -4288 0
-3414 -4289 0
-3415 -4290 0
-3416 -3626 0
-3417 -3627 0
-3418 -3628 0
-3419 -3629 0
-3420 -3630 0
-3416 -3791 0
-3417 -3792 0
-3418 -3793 0
-3419 -3794 0
-3420 -3795 0
-3416 -3931 0
-3417 -3932 0
-3418 -3933 0
-3419 -3934 0
-3420 -3935 0
-3416 -4066 0
-3417 -4067 0
-3418 -4068 0
-3419 -4069 0
-3420 -4070 0
-3421 -3636 0
-3422 -3637 0
-3423 -3638 0
-3424 -3639 0
-3425 -3640 0
-3421 -3776 0
-3422 -3777 0
-3423 -3778 0
-3424 -3779 0
-3425 -3780 0
-3421 -3926 0
-3422 -3927 0
-3423 -3928 0
-3424 -3929 0
-3425 -3930 0
-3421 -4071 0
-3422 -4072 0
-3423 -4073 0
-3424 -4074 0
-3425 -4075 0
-3421 -4291 0
-3422 -4292 0
-3423 -4293 0
-3424 -4294 0
-3425 -4295 0
-3426 -3781 0
-3427 -3782 0
-3428 -3783 0
-3429 -3784 0
-3430 -3785 0
-3426 -3941 0
-3427 -3942 0
-3428 -3943 0
-3429 -3944 0
-3430 -3945 0
-3426 -4296 0
-3427 -4297 0
-3428 -4298 0
-3429 -4299 0
-3430 -4300 0
-3426 -4386 0
-3427 -4387 0
-3428 -4388 0
-3429 -4389 0
-3430 -4390 0
-3431 -3806 0
-3432 -3807 0
-3433 -3808 0
-3434 -3809 0
-3435 -3810 0
-3431 -3936 0
-3432 -3937 0
-3433 -3938 0
-3434 -3939 0
-3435 -3940 0
-3431 -4301 0
-3432 -4302 0
-3433 -4303 0
-3434 -4304 0
-3435 -4305 0
-3431 -4391 0
-3432 -4392 0
-3433 -4393 0
-3434 -4394 0
-3435 -4395 0
-3436 -3631 0
-3437 -3632 0
-3438 -3633 0
-3439 -3634 0
-3440 -3635 0
-3436 -3811 0
-3437 -3812 0
-3438 -3813 0
-3439 -3814 0
-3440 -3815 0
-3436 -3951 0
-3437 -3952 0
-3438 -3953 0
-3439 -3954 0
-3440 -3955 0
-3436 -4076 0
-3437 -4077 0
-3438 -4078 0
-3439 -4079 0
-3440 -4080 0
-3436 -4306 0
-3437 -4307 0
-3438 -4308 0
-3439 -4309 0
-3440 -4310 0
-3441 -3641 0
-3442 -3642 0
-3443 -3643 0
-3444 -3644 0
-3445 -3645 0
-3441 -3796 0
-3442 -3797 0
-3443 -3798 0
-3444 -3799 0
-3445 -3800 0
-3441 -3946 0
-3442 -3947 0
-3443 -3948 0
-3444 -3949 0
-3445 -3950 0
-3441 -4081 0
-3442 -4082 0
-3443 -4083 0
-3444 -4084 0
-3445 -4085 0
-3446 -3801 0
-3447 -3802 0
-3448 -3803 0
-3449 -3804 0
-3450 -3805 0
-3446 -3961 0
-3447 -3962 0
-3448 -3963 0
-3449 -3964 0
-3450 -3965 0
-3446 -4311 0
-3447 -4312 0
-3448 -4313 0
-3449 -4314 0
-3450 -4315 0
-3451 -3956 0
-3452 -3957 0
-3453 -3958 0
-3454 -3959 0
-3455 -3960 0
-3451 -4316 0
-3452 -4317 0
-3453 -4318 0
-3454 -4319 0
-3455 -4320 0
-3456 -3771 0
-3457 -3772 0
-3458 -3773 0
-3459 -3774 0
-3460 -3775 0
-3456 -3911 0
-3457 -3912 0
-3458 -3913 0
-3459 -3914 0
-3460 -3915 0
-3456 -4086 0
-3457 -4087 0
-3458 -4088 0
-3459 -4089 0
-3460 -4090 0
-3456 -4321 0
-3457 -4322 0
-3458 -4323 0
-3459 -4324 0
-3460 -4325 0
-3476 -3551 0
-3477 -3552 0
-3478 -3553 0
-3479 -3554 0
-3480 -3555 0
-3476 -3616 0
-3477 -3617 0
-3478 -3618 0
-3479 -3619 0
-3480 -3620 0
-3476 -4206 0
-3477 -4207 0
-3478 -4208 0
-3479 -4209 0
-3480 -4210 0
-3481 -3536 0
-3482 -3537 0
-3483 -3538 0
-3484 -3539 0
-3485 -3540 0
-3481 -3561 0
-3482 -3562 0
-3483 -3563 0
-3484 -3564 0
-3485 -3565 0
-3481 -3776 0
-3482 -3777 0
-3483 -3778 0
-3484 -3779 0
-3485 -3780 0
-3481 -4036 0
-3482 -4037 0
-3483 -4038 0
-3484 -4039 0
-3485 -4040 0
-3481 -4181 0
-3482 -4182 0
-3483 -4183 0
-3484 -4184 0
-3485 -4185 0
-3486 -3541 0
-3487 -3542 0
-3488 -3543 0
-3489 -3544 0
-3490 -3545 0
-3486 -3566 0
-3487 -3567 0
-3488 -3568 0
-3489 -3569 0
-3490 -3570 0
-3486 -3771 0
-3487 -3772 0
-3488 -3773 0
-3489 -3774 0
-3490 -3775 0
-3486 -3781 0
-3487 -3782 0
-3488 -3783 0
-3489 -3784 0
-3490 -3785 0
-3486 -4031 0
-3487 -4032 0
-3488 -4033 0
-3489 -4034 0
-3490 -4035 0
-3486 -4186 0
-3487 -4187 0
-3488 -4188 0
-3489 -4189 0
-3490 -4190 0
-3491 -3551 0
-3492 -3552 0
-3493 -3553 0
-3494 -3554 0
-3495 -3555 0
-3491 -3576 0
-3492 -3577 0
-3493 -3578 0
-3494 -3579 0
-3495 -3580 0
-3491 -4191 0
-3492 -4192 0
-3493 -4193 0
-3494 -4194 0
-3495 -4195 0
-3496 -3556 0
-3497 -3557 0
-3498 -3558 0
-3499 -3559 0
-3500 -3560 0
-3496 -3581 0
-3497 -3582 0
-3498 -3583 0
-3499 -3584 0
-3500 -3585 0
-3496 -4186 0
-3497 -4187 0
-3498 -4188 0
-3499 -4189 0
-3500 -4190 0
-3501 -3566 0
-3502 -3567 0
-3503 -3568 0
-3504 -3569 0
-3505 -3570 0
-3501 -3591 0
-3502 -3592 0
-3503 -3593 0
-3504 -3594 0
-3505 -3595 0
-3501 -3786 0
-3502 -3787 0
-3503 -3788 0
-3504 -3789 0
-3505 -3790 0
-3501 -3796 0
-3502 -3797 0
-3503 -3798 0
-3504 -3799 0
-3505 -3800 0
-3501 -4046 0
-3502 -4047 0
-3503 -4048 0
-3504 -4049 0
-3505 -4050 0
-3501 -4191 0
-3502 -4192 0
-3503 -4193 0
-3504 -4194 0
-3505 -4195 0
-3501 -4391 0
-3502 -4392 0
-3503 -4393 0
-3504 -4394 0
-3505 -4395 0
-3506 -3571 0
-3507 -3572 0
-3508 -3573 0
-3509 -3574 0
-3510 -3575 0
-3506 -3596 0
-3507 -3597 0
-3508 -3598 0
-3509 -3599 0
-3510 -3600 0
-3506 -3791 0
-3507 -3792 0
-3508 -3793 0
-3509 -3794 0
-3510 -3795 0
-3506 -3801 0
-3507 -3802 0
-3508 -3803 0
-3509 -3804 0
-3510 -3805 0
-3506 -4041 0
-3507 -4042 0
-3508 -4043 0
-3509 -4044 0
-3510 -4045 0
-3506 -4196 0
-3507 -4197 0
-3508 -4198 0
-3509 -4199 0
-3510 -4200 0
-3506 -4386 0
-3507 -4387 0
-3508 -4388 0
-3509 -4389 0
-3510 -4390 0
-3511 -3581 0
-3512 -3582 0
-3513 -3583 0
-3514 -3584 0
-3515 -3585 0
-3511 -3606 0
-3512 -3607 0
-3513 -3608 0
-3514 -3609 0
-3515 -3610 0
-3511 -4201 0
-3512 -4202 0
-3513 -4203 0
-3514 -4204 0
-3515 -4205 0
-3516 -3586 0
-3517 -3587 0
-3518 -3588 0
-3519 -3589 0
-3520 -3590 0
-3516 -3611 0
-3517 -3612 0
-3518 -3613 0
-3519 -3614 0
-3520 -3615 0
-3516 -4196 0
-3517 -4197 0
-3518 -4198 0
-3519 -4199 0
-3520 -4200 0
-3521 -3596 0
-3522 -3597 0
-3523 -3598 0
-3524 -3599 0
-3525 -3600 0
-3521 -3621 0
-3522 -3622 0
-3523 -3623 0
-3524 -3624 0
-3525 -3625 0
-3521 -3806 0
-3522 -3807 0
-3523 -3808 0
-3524 -3809 0
-3525 -3810 0
-3521 -3816 0
-3522 -3817 0
-3523 -3818 0
-3524 -3819 0
-3525 -3820 0
-3521 -4056 0
-3522 -4057 0
-3523 -4058 0
-3524 -4059 0
-3525 -4060 0
-3521 -4201 0
-3522 -4202 0
-3523 -4203 0
-3524 -4204 0
-3525 -4205 0
-3526 -3536 0
-3527 -3537 0
-3528 -3538 0
-3529 -3539 0
-3530 -3540 0
-3526 -3601 0
-3527 -3602 0
-3528 -3603 0
-3529 -3604 0
-3530 -3605 0
-3526 -3811 0
-3527 -3812 0
-3528 -3813 0
-3529 -3814 0
-3530 -3815 0
-3526 -4051 0
-3527 -4052 0
-3528 -4053 0
-3529 -4054 0
-3530 -4055 0
-3526 -4206 0
-3527 -4207 0
-3528 -4208 0
-3529 -4209 0
-3530 -4210 0
-3531 -3546 0
-3532 -3547 0
-3533 -3548 0
-3534 -3549 0
-3535 -3550 0
-3531 -3611 0
-3532 -3612 0
-3533 -3613 0
-3534 -3614 0
-3535 -3615 0
-3531 -4181 0
-3532 -4182 0
-3533 -4183 0
-3534 -4184 0
-3535 -4185 0
-3536 -3676 0
-3537 -3677 0
-3538 -3678 0
-3539 -3679 0
-3540 -3680 0
-3536 -3741 0
-3537 -3742 0
-3538 -3743 0
-3539 -3744 0
-3540 -3745 0
-3536 -3916 0
-3537 -3917 0
-3538 -3918 0
-3539 -3919 0
-3540 -3920 0
-3536 -3961 0
-3537 -3962 0
-3538 -3963 0
-3539 -3964 0
-3540 -3965 0
-3536 -4281 0
-3537 -4282 0
-3538 -4283 0
-3539 -4284 0
-3540 -4285 0
-3536 -4316 0
-3537 -4317 0
-3538 -4318 0
-3539 -4319 0
-3540 -4320 0
-3541 -4176 0
-3542 -4177 0
-3543 -4178 0
-3544 -4179 0
-3545 -4180 0
-3541 -4321 0
-3542 -4322 0
-3543 -4323 0
-3544 -4324 0
-3545 -4325 0
-3546 -3751 0
-3547 -3752 0
-3548 -3753 0
-3549 -3754 0
-3550 -3755 0
-3546 -4111 0
-3547 -4112 0
-3548 -4113 0
-3549 -4114 0
-3550 -4115 0
-3546 -4281 0
-3547 -4282 0
-3548 -4283 0
-3549 -4284 0
-3550 -4285 0
-3551 -3671 0
-3552 -3672 0
-3553 -3673 0
-3554 -3674 0
-3555 -3675 0
-3551 -3686 0
-3552 -3687 0
-3553 -3688 0
-3554 -3689 0
-3555 -3690 0
-3551 -3911 0
-3552 -3912 0
-3553 -3913 0
-3554 -3914 0
-3555 -3915 0
-3551 -3926 0
-3552 -3927 0
-3553 -3928 0
-3554 -3929 0
-3555 -3930 0
-3556 -3696 0
-3557 -3697 0
-3558 -3698 0
-3559 -3699 0
-3560 -3700 0
-3556 -4101 0
-3557 -4102 0
-3558 -4103 0
-3559 -4104 0
-3560 -4105 0
-3556 -4286 0
-3557 -4287 0
-3558 -4288 0
-3559 -4289 0
-3560 -4290 0
-3561 -4126 0
-3562 -4127 0
-3563 -4128 0
-3564 -4129 0
-3565 -4130 0
-3561 -4291 0
-3562 -4292 0
-3563 -4293 0
-3564 -4294 0
-3565 -4295 0
-3566 -3681 0
-3567 -3682 0
-3568 -3683 0
-3569 -3684 0
-3570 -3685 0
-3566 -3706 0
-3567 -3707 0
-3568 -3708 0
-3569 -3709 0
-3570 -3710 0
-3566 -3921 0
-3567 -3922 0
-3568 -3923 0
-3569 -3924 0
-3570 -3925 0
-3566 -3936 0
-3567 -3937 0
-3568 -3938 0
-3569 -3939 0
-3570 -3940 0
-3566 -4286 0
-3567 -4287 0
-3568 -4288 0
-3569 -4289 0
-3570 -4290 0
-3566 -4296 0
-3567 -4297 0
-3568 -4298 0
-3569 -4299 0
-3570 -4300 0
-3571 -4116 0
-3572 -4117 0
-3573 -4118 0
-3574 -4119 0
-3575 -4120 0
-3576 -3691 0
-3577 -3692 0
-3578 -3693 0
-3579 -3694 0
-3580 -3695 0
-3576 -4141 0
-3577 -4142 0
-3578 -4143 0
-3579 -4144 0
-3580 -4145 0
-3576 -4296 0
-3577 -4297 0
-3578 -4298 0
-3579 -4299 0
-3580 -4300 0
-3581 -3701 0
-3582 -3702 0
-3583 -3703 0
-3584 -3704 0
-3585 -3705 0
-3581 -3716 0
-3582 -3717 0
-3583 -3718 0
-3584 -3719 0
-3585 -3720 0
-3581 -3931 0
-3582 -3932 0
-3583 -3933 0
-3584 -3934 0
-3585 -3935 0
-3581 -3946 0
-3582 -3947 0
-3583 -3948 0
-3584 -3949 0
-3585 -3950 0
-3586 -3726 0
-3587 -3727 0
-3588 -3728 0
-3589 -3729 0
-3590 -3730 0
-3586 -4131 0
-3587 -4132 0
-3588 -4133 0
-3589 -4134 0
-3590 -4135 0
-3586 -4301 0
-3587 -4302 0
-3588 -4303 0
-3589 -4304 0
-3590 -4305 0
-3591 -4156 0
-3592 -4157 0
-3593 -4158 0
-3594 -4159 0
-3595 -4160 0
-3596 -3711 0
-3597 -3712 0
-3598 -3713 0
-3599 -3714 0
-3600 -3715 0
-3596 -3736 0
-3597 -3737 0
-3598 -3738 0
-3599 -3739 0
-3600 -3740 0
-3596 -3941 0
-3597 -3942 0
-3598 -3943 0
-3599 -3944 0
-3600 -3945 0
-3596 -3956 0
-3597 -3957 0
-3598 -3958 0
-3599 -3959 0
-3600 -3960 0
-3596 -4301 0
-3597 -4302 0
-3598 -4303 0
-3599 -4304 0
-3600 -4305 0
-3596 -4311 0
-3597 -4312 0
-3598 -4313 0
-3599 -4314 0
-3600 -4315 0
-3601 -4146 0
-3602 -4147 0
-3603 -4148 0
-3604 -4149 0
-3605 -4150 0
-3601 -4306 0
-3602 -4307 0
-3603 -4308 0
-3604 -4309 0
-3605 -4310 0
-3606 -3721 0
-3607 -3722 0
-3608 -3723 0
-3609 -3724 0
-3610 -3725 0
-3606 -4171 0
-3607 -4172 0
-3608 -4173 0
-3609 -4174 0
-3610 -4175 0
-3606 -4311 0
-3607 -4312 0
-3608 -4313 0
-3609 -4314 0
-3610 -4315 0
-3611 -3731 0
-3612 -3732 0
-3613 -3733 0
-3614 -3734 0
-3615 -3735 0
-3611 -3746 0
-3612 -3747 0
-3613 -3748 0
-3614 -3749 0
-3615 -3750 0
-3611 -3951 0
-3612 -3952 0
-3613 -3953 0
-3614 -3954 0
-3615 -3955 0
-3611 -3966 0
-3612 -3967 0
-3613 -3968 0
-3614 -3969 0
-3615 -3970 0
-3616 -3666 0
-3617 -3667 0
-3618 -3668 0
-3619 -3669 0
-3620 -3670 0
-3616 -4161 0
-3617 -4162 0
-3618 -4163 0
-3619 -4164 0
-3620 -4165 0
-3616 -4316 0
-3617 -4317 0
-3618 -4318 0
-3619 -4319 0
-3620 -4320 0
-3621 -4096 0
-3622 -4097 0
-3623 -4098 0
-3624 -4099 0
-3625 -4100 0
-3621 -4276 0
-3622 -4277 0
-3623 -4278 0
-3624 -4279 0
-3625 -4280 0
-3626 -3981 0
-3627 -3982 0
-3628 -3983 0
-3629 -3984 0
-3630 -3985 0
-3631 -4001 0
-3632 -4002 0
-3633 -4003 0
-3634 -4004 0
-3635 -4005 0
-3636 -3996 0
-3637 -3997 0
-3638 -3998 0
-3639 -3999 0
-3640 -4000 0
-3641 -4016 0
-3642 -4017 0
-3643 -4018 0
-3644 -4019 0
-3645 -4020 0
-3646 -3821 0
-3647 -3822 0
-3648 -3823 0
-3649 -3824 0
-3650 -3825 0
-3646 -3931 0
-3647 -3932 0
-3648 -3933 0
-3649 -3934 0
-3650 -3935 0
-3651 -3836 0
-3652 -3837 0
-3653 -3838 0
-3654 -3839 0
-3655 -3840 0
-3651 -3926 0
-3652 -3927 0
-3653 -3928 0
-3654 -3929 0
-3655 -3930 0
-3651 -4246 0
-3652 -4247 0
-3653 -4248 0
-3654 -4249 0
-3655 -4250 0
-3656 -3831 0
-3657 -3832 0
-3658 -3833 0
-3659 -3834 0
-3660 -3835 0
-3656 -3951 0
-3657 -3952 0
-3658 -3953 0
-3659 -3954 0
-3660 -3955 0
-3656 -4251 0
-3657 -4252 0
-3658 -4253 0
-3659 -4254 0
-3660 -4255 0
-3661 -3846 0
-3662 -3847 0
-3663 -3848 0
-3664 -3849 0
-3665 -3850 0
-3661 -3946 0
-3662 -3947 0
-3663 -3948 0
-3664 -3949 0
-3665 -3950 0
-3666 -3856 0
-3667 -3857 0
-3668 -3858 0
-3669 -3859 0
-3670 -3860 0
-3666 -4021 0
-3667 -4022 0
-3668 -4023 0
-3669 -4024 0
-3670 -4025 0
-3666 -4316 0
-3667 -4317 0
-3668 -4318 0
-3669 -4319 0
-3670 -4320 0
-3671 -3821 0
-3672 -3822 0
-3673 -3823 0
-3674 -3824 0
-3675 -3825 0
-3671 -3906 0
-3672 -3907 0
-3673 -3908 0
-3674 -3909 0
-3675 -3910 0
-3671 -4381 0
-3672 -4382 0
-3673 -4383 0
-3674 -4384 0
-3675 -4385 0
-3676 -3866 0
-3677 -3867 0
-3678 -3868 0
-3679 -3869 0
-3680 -3870 0
-3676 -3971 0
-3677 -3972 0
-3678 -3973 0
-3679 -3974 0
-3680 -3975 0
-3676 -4216 0
-3677 -4217 0
-3678 -4218 0
-3679 -4219 0
-3680 -4220 0
-3676 -4281 0
-3677 -4282 0
-3678 -4283 0
-3679 -4284 0
-3680 -4285 0
-3676 -4336 0
-3677 -4337 0
-3678 -4338 0
-3679 -4339 0
-3680 -4340 0
-3681 -3851 0
-3682 -3852 0
-3683 -3853 0
-3684 -3854 0
-3685 -3855 0
-3681 -3986 0
-3682 -3987 0
-3683 -3988 0
-3684 -3989 0
-3685 -3990 0
-3681 -4211 0
-3682 -4212 0
-3683 -4213 0
-3684 -4214 0
-3685 -4215 0
-3681 -4286 0
-3682 -4287 0
-3683 -4288 0
-3684 -4289 0
-3685 -4290 0
-3681 -4331 0
-3682 -4332 0
-3683 -4333 0
-3684 -4334 0
-3685 -4335 0
-3686 -3826 0
-3687 -3827 0
-3688 -3828 0
-3689 -3829 0
-3690 -3830 0
-3686 -3871 0
-3687 -3872 0
-3688 -3873 0
-3689 -3874 0
-3690 -3875 0
-3686 -4346 0
-3687 -4347 0
-3688 -4348 0
-3689 -4349 0
-3690 -4350 0
-3691 -3861 0
-3692 -3862 0
-3693 -3863 0
-3694 -3864 0
-3695 -3865 0
-3691 -3996 0
-3692 -3997 0
-3693 -3998 0
-3694 -3999 0
-3695 -4000 0
-3691 -4296 0
-3692 -4297 0
-3693 -4298 0
-3694 -4299 0
-3695 -4300 0
-3696 -3876 0
-3697 -3877 0
-3698 -3878 0
-3699 -3879 0
-3700 -3880 0
-3696 -3981 0
-3697 -3982 0
-3698 -3983 0
-3699 -3984 0
-3700 -3985 0
-3696 -4286 0
-3697 -4287 0
-3698 -4288 0
-3699 -4289 0
-3700 -4290 0
-3701 -3831 0
-3702 -3832 0
-3703 -3833 0
-3704 -3834 0
-3705 -3835 0
-3701 -3866 0
-3702 -3867 0
-3703 -3868 0
-3704 -3869 0
-3705 -3870 0
-3701 -4341 0
-3702 -4342 0
-3703 -4343 0
-3704 -4344 0
-3705 -4345 0
-3706 -3886 0
-3707 -3887 0
-3708 -3888 0
-3709 -3889 0
-3710 -3890 0
-3706 -3991 0
-3707 -3992 0
-3708 -3993 0
-3709 -3994 0
-3710 -3995 0
-3706 -4226 0
-3707 -4227 0
-3708 -4228 0
-3709 -4229 0
-3710 -4230 0
-3706 -4296 0
-3707 -4297 0
-3708 -4298 0
-3709 -4299 0
-3710 -4300 0
-3706 -4356 0
-3707 -4357 0
-3708 -4358 0
-3709 -4359 0
-3710 -4360 0
-3711 -3871 0
-3712 -3872 0
-3713 -3873 0
-3714 -3874 0
-3715 -3875 0
-3711 -4006 0
-3712 -4007 0
-3713 -4008 0
-3714 -4009 0
-3715 -4010 0
-3711 -4221 0
-3712 -4222 0
-3713 -4223 0
-3714 -4224 0
-3715 -4225 0
-3711 -4301 0
-3712 -4302 0
-3713 -4303 0
-3714 -4304 0
-3715 -4305 0
-3711 -4351 0
-3712 -4352 0
-3713 -4353 0
-3714 -4354 0
-3715 -4355 0
-3716 -3836 0
-3717 -3837 0
-3718 -3838 0
-3719 -3839 0
-3720 -3840 0
-3716 -3891 0
-3717 -3892 0
-3718 -3893 0
-3719 -3894 0
-3720 -3895 0
-3716 -4366 0
-3717 -4367 0
-3718 -4368 0
-3719 -4369 0
-3720 -4370 0
-3721 -3881 0
-3722 -3882 0
-3723 -3883 0
-3724 -3884 0
-3725 -3885 0
-3721 -4016 0
-3722 -4017 0
-3723 -4018 0
-3724 -4019 0
-3725 -4020 0
-3721 -4311 0
-3722 -4312 0
-3723 -4313 0
-3724 -4314 0
-3725 -4315 0
-3726 -3896 0
-3727 -3897 0
-3728 -3898 0
-3729 -3899 0
-3730 -3900 0
-3726 -4001 0
-3727 -4002 0
-3728 -4003 0
-3729 -4004 0
-3730 -4005 0
-3726 -4301 0
-3727 -4302 0
-3728 -4303 0
-3729 -4304 0
-3730 -4305 0
-3731 -3841 0
-3732 -3842 0
-3733 -3843 0
-3734 -3844 0
-3735 -3845 0
-3731 -3886 0
-3732 -3887 0
-3733 -3888 0
-3734 -3889 0
-3735 -3890 0
-3731 -4361 0
-3732 -4362 0
-3733 -4363 0
-3734 -4364 0
-3735 -4365 0
-3736 -3906 0
-3737 -3907 0
-3738 -3908 0
-3739 -3909 0
-3740 -3910 0
-3736 -4011 0
-3737 -4012 0
-3738 -4013 0
-3739 -4014 0
-3740 -4015 0
-3736 -4236 0
-3737 -4237 0
-3738 -4238 0
-3739 -4239 0
-3740 -4240 0
-3736 -4311 0
-3737 -4312 0
-3738 -4313 0
-3739 -4314 0
-3740 -4315 0
-3736 -4376 0
-3737 -4377 0
-3738 -4378 0
-3739 -4379 0
-3740 -4380 0
-3741 -3891 0
-3742 -3892 0
-3743 -3893 0
-3744 -3894 0
-3745 -3895 0
-3741 -4026 0
-3742 -4027 0
-3743 -4028 0
-3744 -4029 0
-3745 -4030 0
-3741 -4231 0
-3742 -4232 0
-3743 -4233 0
-3744 -4234 0
-3745 -4235 0
-3741 -4316 0
-3742 -4317 0
-3743 -4318 0
-3744 -4319 0
-3745 -4320 0
-3741 -4371 0
-3742 -4372 0
-3743 -4373 0
-3744 -4374 0
-3745 -4375 0
-3746 -3846 0
-3747 -3847 0
-3748 -3848 0
-3749 -3849 0
-3750 -3850 0
-3746 -3851 0
-3747 -3852 0
-3748 -3853 0
-3749 -3854 0
-3750 -3855 0
-3746 -4326 0
-3747 -4327 0
-3748 -4328 0
-3749 -4329 0
-3750 -4330 0
-3751 -3901 0
-3752 -3902 0
-3753 -3903 0
-3754 -3904 0
-3755 -3905 0
-3751 -3976 0
-3752 -3977 0
-3753 -3978 0
-3754 -3979 0
-3755 -3980 0
-3751 -4281 0
-3752 -4282 0
-3753 -4283 0
-3754 -4284 0
-3755 -4285 0
-3756 -4921 0
-3757 -4922 0
-3758 -4923 0
-3759 -4924 0
-3760 -4925 0
-3761 -4931 0
-3762 -4932 0
-3763 -4933 0
-3764 -4934 0
-3765 -4935 0
-3766 -4941 0
-3767 -4942 0
-3768 -4943 0
-3769 -4944 0
-3770 -4945 0
-3771 -3826 0
-3772 -3827 0
-3773 -3828 0
-3774 -3829 0
-3775 -3830 0
-3771 -4256 0
-3772 -4257 0
-3773 -4258 0
-3774 -4259 0
-3775 -4260 0
-3771 -4321 0
-3772 -4322 0
-3773 -4323 0
-3774 -4324 0
-3775 -4325 0
-3776 -3821 0
-3777 -3822 0
-3778 -3823 0
-3779 -3824 0
-3780 -3825 0
-3776 -4291 0
-3777 -4292 0
-3778 -4293 0
-3779 -4294 0
-3780 -4295 0
-3781 -4041 0
-3782 -4042 0
-3783 -4043 0
-3784 -4044 0
-3785 -4045 0
-3781 -4216 0
-3782 -4217 0
-3783 -4218 0
-3784 -4219 0
-3785 -4220 0
-3781 -4296 0
-3782 -4297 0
-3783 -4298 0
-3784 -4299 0
-3785 -4300 0
-3786 -4036 0
-3787 -4037 0
-3788 -4038 0
-3789 -4039 0
-3790 -4040 0
-3786 -4221 0
-3787 -4222 0
-3788 -4223 0
-3789 -4224 0
-3790 -4225 0
-3786 -4286 0
-3787 -4287 0
-3788 -4288 0
-3789 -4289 0
-3790 -4290 0
-3791 -3836 0
-3792 -3837 0
-3793 -3838 0
-3794 -3839 0
-3795 -3840 0
-3791 -4246 0
-3792 -4247 0
-3793 -4248 0
-3794 -4249 0
-3795 -4250 0
-3791 -4386 0
-3792 -4387 0
-3793 -4388 0
-3794 -4389 0
-3795 -4390 0
-3796 -3831 0
-3797 -3832 0
-3798 -3833 0
-3799 -3834 0
-3800 -3835 0
-3796 -4251 0
-3797 -4252 0
-3798 -4253 0
-3799 -4254 0
-3800 -4255 0
-3796 -4391 0
-3797 -4392 0
-3798 -4393 0
-3799 -4394 0
-3800 -4395 0
-3801 -4051 0
-3802 -4052 0
-3803 -4053 0
-3804 -4054 0
-3805 -4055 0
-3801 -4226 0
-3802 -4227 0
-3803 -4228 0
-3804 -4229 0
-3805 -4230 0
-3801 -4311 0
-3802 -4312 0
-3803 -4313 0
-3804 -4314 0
-3805 -4315 0
-3806 -4046 0
-3807 -4047 0
-3808 -4048 0
-3809 -4049 0
-3810 -4050 0
-3806 -4231 0
-3807 -4232 0
-3808 -4233 0
-3809 -4234 0
-3810 -4235 0
-3806 -4301 0
-3807 -4302 0
-3808 -4303 0
-3809 -4304 0
-3810 -4305 0
-3811 -3846 0
-3812 -3847 0
-3813 -3848 0
-3814 -3849 0
-3815 -3850 0
-3811 -4306 0
-3812 -4307 0
-3813 -4308 0
-3814 -4309 0
-3815 -4310 0
-3816 -3841 0
-3817 -3842 0
-3818 -3843 0
-3819 -3844 0
-3820 -3845 0
-3816 -4241 0
-3817 -4242 0
-3818 -4243 0
-3819 -4244 0
-3820 -4245 0
-3816 -4276 0
-3817 -4277 0
-3818 -4278 0
-3819 -4279 0
-3820 -4280 0
-3821 -4181 0
-3822 -4182 0
-3823 -4183 0
-3824 -4184 0
-3825 -4185 0
-3826 -4186 0
-3827 -4187 0
-3828 -4188 0
-3829 -4189 0
-3830 -4190 0
-3831 -4191 0
-3832 -4192 0
-3833 -4193 0
-3834 -4194 0
-3835 -4195 0
-3836 -4196 0
-3837 -4197 0
-3838 -4198 0
-3839 -4199 0
-3840 -4200 0
-3841 -4201 0
-3842 -4202 0
-3843 -4203 0
-3844 -4204 0
-3845 -4205 0
-3846 -4206 0
-3847 -4207 0
-3848 -4208 0
-3849 -4209 0
-3850 -4210 0
-3851 -4026 0
-3852 -4027 0
-3853 -4028 0
-3854 -4029 0
-3855 -4030 0
-3851 -4066 0
-3852 -4067 0
-3853 -4068 0
-3854 -4069 0
-3855 -4070 0
-3851 -4261 0
-3852 -4262 0
-3853 -4263 0
-3854 -4264 0
-3855 -4265 0
-3856 -3971 0
-3857 -3972 0
-3858 -3973 0
-3859 -3974 0
-3860 -3975 0
-3856 -3981 0
-3857 -3982 0
-3858 -3983 0
-3859 -3984 0
-3860 -3985 0
-3856 -4216 0
-3857 -4217 0
-3858 -4218 0
-3859 -4219 0
-3860 -4220 0
-3861 -3976 0
-3862 -3977 0
-3863 -3978 0
-3864 -3979 0
-3865 -3980 0
-3861 -3986 0
-3862 -3987 0
-3863 -3988 0
-3864 -3989 0
-3865 -3990 0
-3861 -4211 0
-3862 -4212 0
-3863 -4213 0
-3864 -4214 0
-3865 -4215 0
-3866 -3991 0
-3867 -3992 0
-3868 -3993 0
-3869 -3994 0
-3870 -3995 0
-3866 -4061 0
-3867 -4062 0
-3868 -4063 0
-3869 -4064 0
-3870 -4065 0
-3866 -4261 0
-3867 -4262 0
-3868 -4263 0
-3869 -4264 0
-3870 -4265 0
-3871 -3986 0
-3872 -3987 0
-3873 -3988 0
-3874 -3989 0
-3875 -3990 0
-3871 -4076 0
-3872 -4077 0
-3873 -4078 0
-3874 -4079 0
-3875 -4080 0
-3871 -4266 0
-3872 -4267 0
-3873 -4268 0
-3874 -4269 0
-3875 -4270 0
-3876 -3991 0
-3877 -3992 0
-3878 -3993 0
-3879 -3994 0
-3880 -3995 0
-3876 -4001 0
-3877 -4002 0
-3878 -4003 0
-3879 -4004 0
-3880 -4005 0
-3876 -4226 0
-3877 -4227 0
-3878 -4228 0
-3879 -4229 0
-3880 -4230 0
-3881 -3996 0
-3882 -3997 0
-3883 -3998 0
-3884 -3999 0
-3885 -4000 0
-3881 -4006 0
-3882 -4007 0
-3883 -4008 0
-3884 -4009 0
-3885 -4010 0
-3881 -4221 0
-3882 -4222 0
-3883 -4223 0
-3884 -4224 0
-3885 -4225 0
-3886 -4011 0
-3887 -4012 0
-3888 -4013 0
-3889 -4014 0
-3890 -4015 0
-3886 -4071 0
-3887 -4072 0
-3888 -4073 0
-3889 -4074 0
-3890 -4075 0
-3886 -4266 0
-3887 -4267 0
-3888 -4268 0
-3889 -4269 0
-3890 -4270 0
-3891 -4006 0
-3892 -4007 0
-3893 -4008 0
-3894 -4009 0
-3895 -4010 0
-3891 -4086 0
-3892 -4087 0
-3893 -4088 0
-3894 -4089 0
-3895 -4090 0
-3891 -4271 0
-3892 -4272 0
-3893 -4273 0
-3894 -4274 0
-3895 -4275 0
-3896 -4011 0
-3897 -4012 0
-3898 -4013 0
-3899 -4014 0
-3900 -4015 0
-3896 -4021 0
-3897 -4022 0
-3898 -4023 0
-3899 -4024 0
-3900 -4025 0
-3896 -4236 0
-3897 -4237 0
-3898 -4238 0
-3899 -4239 0
-3900 -4240 0
-3901 -4016 0
-3902 -4017 0
-3903 -4018 0
-3904 -4019 0
-3905 -4020 0
-3901 -4026 0
-3902 -4027 0
-3903 -4028 0
-3904 -4029 0
-3905 -4030 0
-3901 -4231 0
-3902 -4232 0
-3903 -4233 0
-3904 -4234 0
-3905 -4235 0
-3906 -3971 0
-3907 -3972 0
-3908 -3973 0
-3909 -3974 0
-3910 -3975 0
-3906 -4081 0
-3907 -4082 0
-3908 -4083 0
-3909 -4084 0
-3910 -4085 0
-3906 -4271 0
-3907 -4272 0
-3908 -4273 0
-3909 -4274 0
-3910 -4275 0
-3911 -3966 0
-3912 -3967 0
-3913 -3968 0
-3914 -3969 0
-3915 -3970 0
-3911 -4061 0
-3912 -4062 0
-3913 -4063 0
-3914 -4064 0
-3915 -4065 0
-3916 -3921 0
-3917 -3922 0
-3918 -3923 0
-3919 -3924 0
-3920 -3925 0
-3916 -4241 0
-3917 -4242 0
-3918 -4243 0
-3919 -4244 0
-3920 -4245 0
-3921 -4246 0
-3922 -4247 0
-3923 -4248 0
-3924 -4249 0
-3925 -4250 0
-3926 -3931 0
-3927 -3932 0
-3928 -3933 0
-3929 -3934 0
-3930 -3935 0
-3926 -4066 0
-3927 -4067 0
-3928 -4068 0
-3929 -4069 0
-3930 -4070 0
-3931 -4071 0
-3932 -4072 0
-3933 -4073 0
-3934 -4074 0
-3935 -4075 0
-3936 -3941 0
-3937 -3942 0
-3938 -3943 0
-3939 -3944 0
-3940 -3945 0
-3936 -4391 0
-3937 -4392 0
-3938 -4393 0
-3939 -4394 0
-3940 -4395 0
-3941 -4386 0
-3942 -4387 0
-3943 -4388 0
-3944 -4389 0
-3945 -4390 0
-3946 -3951 0
-3947 -3952 0
-3948 -3953 0
-3949 -3954 0
-3950 -3955 0
-3946 -4076 0
-3947 -4077 0
-3948 -4078 0
-3949 -4079 0
-3950 -4080 0
-3951 -4081 0
-3952 -4082 0
-3953 -4083 0
-3954 -4084 0
-3955 -4085 0
-3956 -3961 0
-3957 -3962 0
-3958 -3963 0
-3959 -3964 0
-3960 -3965 0
-3956 -4251 0
-3957 -4252 0
-3958 -4253 0
-3959 -4254 0
-3960 -4255 0
-3961 -4256 0
-3962 -4257 0
-3963 -4258 0
-3964 -4259 0
-3965 -4260 0
-3966 -4086 0
-3967 -4087 0
-3968 -4088 0
-3969 -4089 0
-3970 -4090 0
-3971 -4101 0
-3972 -4102 0
-3973 -4103 0
-3974 -4104 0
-3975 -4105 0
-3971 -4316 0
-3972 -4317 0
-3973 -4318 0
-3974 -4319 0
-3975 -4320 0
-3971 -4396 0
-3972 -4397 0
-3973 -4398 0
-3974 -4399 0
-3975 -4400 0
-3976 -4091 0
-3977 -4092 0
-3978 -4093 0
-3979 -4094 0
-3980 -4095 0
-3976 -4276 0
-3977 -4277 0
-3978 -4278 0
-3979 -4279 0
-3980 -4280 0
-3981 -4121 0
-3982 -4122 0
-3983 -4123 0
-3984 -4124 0
-3985 -4125 0
-3986 -4111 0
-3987 -4112 0
-3988 -4113 0
-3989 -4114 0
-3990 -4115 0
-3986 -4296 0
-3987 -4297 0
-3988 -4298 0
-3989 -4299 0
-3990 -4300 0
-3986 -4401 0
-3987 -4402 0
-3988 -4403 0
-3989 -4404 0
-3990 -4405 0
-3991 -4131 0
-3992 -4132 0
-3993 -4133 0
-3994 -4134 0
-3995 -4135 0
-3991 -4286 0
-3992 -4287 0
-3993 -4288 0
-3994 -4289 0
-3995 -4290 0
-3991 -4401 0
-3992 -4402 0
-3993 -4403 0
-3994 -4404 0
-3995 -4405 0
-3996 -4121 0
-3997 -4122 0
-3998 -4123 0
-3999 -4124 0
-4000 -4125 0
-3996 -4291 0
-3997 -4292 0
-3998 -4293 0
-3999 -4294 0
-4000 -4295 0
-4001 -4151 0
-4002 -4152 0
-4003 -4153 0
-4004 -4154 0
-4005 -4155 0
-4001 -4306 0
-4002 -4307 0
-4003 -4308 0
-4004 -4309 0
-4005 -4310 0
-4006 -4141 0
-4007 -4142 0
-4008 -4143 0
-4009 -4144 0
-4010 -4145 0
-4006 -4311 0
-4007 -4312 0
-4008 -4313 0
-4009 -4314 0
-4010 -4315 0
-4006 -4406 0
-4007 -4407 0
-4008 -4408 0
-4009 -4409 0
-4010 -4410 0
-4011 -4161 0
-4012 -4162 0
-4013 -4163 0
-4014 -4164 0
-4015 -4165 0
-4011 -4301 0
-4012 -4302 0
-4013 -4303 0
-4014 -4304 0
-4015 -4305 0
-4011 -4406 0
-4012 -4407 0
-4013 -4408 0
-4014 -4409 0
-4015 -4410 0
-4016 -4151 0
-4017 -4152 0
-4018 -4153 0
-4019 -4154 0
-4020 -4155 0
-4021 -4091 0
-4022 -4092 0
-4023 -4093 0
-4024 -4094 0
-4025 -4095 0
-4021 -4321 0
-4022 -4322 0
-4023 -4323 0
-4024 -4324 0
-4025 -4325 0
-4026 -4171 0
-4027 -4172 0
-4028 -4173 0
-4029 -4174 0
-4030 -4175 0
-4026 -4281 0
-4027 -4282 0
-4028 -4283 0
-4029 -4284 0
-4030 -4285 0
-4026 -4396 0
-4027 -4397 0
-4028 -4398 0
-4029 -4399 0
-4030 -4400 0
-4031 -4066 0
-4032 -4067 0
-4033 -4068 0
-4034 -4069 0
-4035 -4070 0
-4036 -4061 0
-4037 -4062 0
-4038 -4063 0
-4039 -4064 0
-4040 -4065 0
-4041 -4076 0
-4042 -4077 0
-4043 -4078 0
-4044 -4079 0
-4045 -4080 0
-4046 -4071 0
-4047 -4072 0
-4048 -4073 0
-4049 -4074 0
-4050 -4075 0
-4051 -4086 0
-4052 -4087 0
-4053 -4088 0
-4054 -4089 0
-4055 -4090 0
-4056 -4081 0
-4057 -4082 0
-4058 -4083 0
-4059 -4084 0
-4060 -4085 0
-4061 -4181 0
-4062 -4182 0
-4063 -4183 0
-4064 -4184 0
-4065 -4185 0
-4066 -4186 0
-4067 -4187 0
-4068 -4188 0
-4069 -4189 0
-4070 -4190 0
-4071 -4191 0
-4072 -4192 0
-4073 -4193 0
-4074 -4194 0
-4075 -4195 0
-4076 -4196 0
-4077 -4197 0
-4078 -4198 0
-4079 -4199 0
-4080 -4200 0
-4081 -4201 0
-4082 -4202 0
-4083 -4203 0
-4084 -4204 0
-4085 -4205 0
-4086 -4206 0
-4087 -4207 0
-4088 -4208 0
-4089 -4209 0
-4090 -4210 0
-4096 -4176 0
-4097 -4177 0
-4098 -4178 0
-4099 -4179 0
-4100 -4180 0
-4096 -4331 0
-4097 -4332 0
-4098 -4333 0
-4099 -4334 0
-4100 -4335 0
-4096 -4381 0
-4097 -4382 0
-4098 -4383 0
-4099 -4384 0
-4100 -4385 0
-4096 -4396 0
-4097 -4397 0
-4098 -4398 0
-4099 -4399 0
-4100 -4400 0
-4101 -4111 0
-4102 -4112 0
-4103 -4113 0
-4104 -4114 0
-4105 -4115 0
-4101 -4326 0
-4102 -4327 0
-4103 -4328 0
-4104 -4329 0
-4105 -4330 0
-4101 -4336 0
-4102 -4337 0
-4103 -4338 0
-4104 -4339 0
-4105 -4340 0
-4111 -4331 0
-4112 -4332 0
-4113 -4333 0
-4114 -4334 0
-4115 -4335 0
-4111 -4341 0
-4112 -4342 0
-4113 -4343 0
-4114 -4344 0
-4115 -4345 0
-4116 -4126 0
-4117 -4127 0
-4118 -4128 0
-4119 -4129 0
-4120 -4130 0
-4116 -4336 0
-4117 -4337 0
-4118 -4338 0
-4119 -4339 0
-4120 -4340 0
-4116 -4346 0
-4117 -4347 0
-4118 -4348 0
-4119 -4349 0
-4120 -4350 0
-4116 -4401 0
-4117 -4402 0
-4118 -4403 0
-4119 -4404 0
-4120 -4405 0
-4126 -4341 0
-4127 -4342 0
-4128 -4343 0
-4129 -4344 0
-4130 -4345 0
-4126 -4351 0
-4127 -4352 0
-4128 -4353 0
-4129 -4354 0
-4130 -4355 0
-4126 -4401 0
-4127 -4402 0
-4128 -4403 0
-4129 -4404 0
-4130 -4405 0
-4131 -4141 0
-4132 -4142 0
-4133 -4143 0
-4134 -4144 0
-4135 -4145 0
-4131 -4346 0
-4132 -4347 0
-4133 -4348 0
-4134 -4349 0
-4135 -4350 0
-4131 -4356 0
-4132 -4357 0
-4133 -4358 0
-4134 -4359 0
-4135 -4360 0
-4141 -4351 0
-4142 -4352 0
-4143 -4353 0
-4144 -4354 0
-4145 -4355 0
-4141 -4361 0
-4142 -4362 0
-4143 -4363 0
-4144 -4364 0
-4145 -4365 0
-4146 -4156 0
-4147 -4157 0
-4148 -4158 0
-4149 -4159 0
-4150 -4160 0
-4146 -4356 0
-4147 -4357 0
-4148 -4358 0
-4149 -4359 0
-4150 -4360 0
-4146 -4366 0
-4147 -4367 0
-4148 -4368 0
-4149 -4369 0
-4150 -4370 0
-4146 -4406 0
-4147 -4407 0
-4148 -4408 0
-4149 -4409 0
-4150 -4410 0
-4156 -4361 0
-4157 -4362 0
-4158 -4363 0
-4159 -4364 0
-4160 -4365 0
-4156 -4371 0
-4157 -4372 0
-4158 -4373 0
-4159 -4374 0
-4160 -4375 0
-4156 -4406 0
-4157 -4407 0
-4158 -4408 0
-4159 -4409 0
-4160 -4410 0
-4161 -4171 0
-4162 -4172 0
-4163 -4173 0
-4164 -4174 0
-4165 -4175 0
-4161 -4366 0
-4162 -4367 0
-4163 -4368 0
-4164 -4369 0
-4165 -4370 0
-4161 -4376 0
-4162 -4377 0
-4163 -4378 0
-4164 -4379 0
-4165 -4380 0
-4171 -4371 0
-4172 -4372 0
-4173 -4373 0
-4174 -4374 0
-4175 -4375 0
-4171 -4381 0
-4172 -4382 0
-4173 -4383 0
-4174 -4384 0
-4175 -4385 0
-4176 -4326 0
-4177 -4327 0
-4178 -4328 0
-4179 -4329 0
-4180 -4330 0
-4176 -4376 0
-4177 -4377 0
-4178 -4378 0
-4179 -4379 0
-4180 -4380 0
-4176 -4396 0
-4177 -4397 0
-4178 -4398 0
-4179 -4399 0
-4180 -4400 0
-4211 -4241 0
-4212 -4242 0
-4213 -4243 0
-4214 -4244 0
-4215 -4245 0
-4216 -4246 0
-4217 -4247 0
-4218 -4248 0
-4219 -4249 0
-4220 -4250 0
-4221 -4391 0
-4222 -4392 0
-4223 -4393 0
-4224 -4394 0
-4225 -4395 0
-4226 -4386 0
-4227 -4387 0
-4228 -4388 0
-4229 -4389 0
-4230 -4390 0
-4231 -4251 0
-4232 -4252 0
-4233 -4253 0
-4234 -4254 0
-4235 -4255 0
-4236 -4256 0
-4237 -4257 0
-4238 -4258 0
-4239 -4259 0
-4240 -4260 0
-4241 -4316 0
-4242 -4317 0
-4243 -4318 0
-4244 -4319 0
-4245 -4320 0
-4246 -4296 0
-4247 -4297 0
-4248 -4298 0
-4249 -4299 0
-4250 -4300 0
-4251 -4301 0
-4252 -4302 0
-4253 -4303 0
-4254 -4304 0
-4255 -4305 0
-4256 -4281 0
-4257 -4282 0
-4258 -4283 0
-4259 -4284 0
-4260 -4285 0
-4261 -4691 0
-4262 -4692 0
-4263 -4693 0
-4264 -4694 0
-4265 -4695 0
-4266 -4701 0
-4267 -4702 0
-4268 -4703 0
-4269 -4704 0
-4270 -4705 0
-4271 -4711 0
-4272 -4712 0
-4273 -4713 0
-4274 -4714 0
-4275 -4715 0
-4281 -4396 0
-4282 -4397 0
-4283 -4398 0
-4284 -4399 0
-4285 -4400 0
-4286 -4401 0
-4287 -4402 0
-4288 -4403 0
-4289 -4404 0
-4290 -4405 0
-4296 -4386 0
-4297 -4387 0
-4298 -4388 0
-4299 -4389 0
-4300 -4390 0
-4296 -4401 0
-4297 -4402 0
-4298 -4403 0
-4299 -4404 0
-4300 -4405 0
-4301 -4391 0
-4302 -4392 0
-4303 -4393 0
-4304 -4394 0
-4305 -4395 0
-4301 -4406 0
-4302 -4407 0
-4303 -4408 0
-4304 -4409 0
-4305 -4410 0
-4311 -4406 0
-4312 -4407 0
-4313 -4408 0
-4314 -4409 0
-4315 -4410 0
-4316 -4396 0
-4317 -4397 0
-4318 -4398 0
-4319 -4399 0
-4320 -4400 0
-4326 -4946 0
-4327 -4947 0
-4328 -4948 0
-4329 -4949 0
-4330 -4950 0
-4331 -4951 0
-4332 -4952 0
-4333 -4953 0
-4334 -4954 0
-4335 -4955 0
-4336 -4956 0
-4337 -4957 0
-4338 -4958 0
-4339 -4959 0
-4340 -4960 0
-4341 -4961 0
-4342 -4962 0
-4343 -4963 0
-4344 -4964 0
-4345 -4965 0
-4346 -4966 0
-4347 -4967 0
-4348 -4968 0
-4349 -4969 0
-4350 -4970 0
-4351 -4971 0
-4352 -4972 0
-4353 -4973 0
-4354 -4974 0
-4355 -4975 0
-4356 -4976 0
-4357 -4977 0
-4358 -4978 0
-4359 -4979 0
-4360 -4980 0
-4361 -4981 0
-4362 -4982 0
-4363 -4983 0
-4364 -4984 0
-4365 -4985 0
-4366 -4986 0
-4367 -4987 0
-4368 -4988 0
-4369 -4989 0
-4370 -4990 0
-4371 -4991 0
-4372 -4992 0
-4373 -4993 0
-4374 -4994 0
-4375 -4995 0
-4376 -4996 0
-4377 -4997 0
-4378 -4998 0
-4379 -4999 0
-4380 -5000 0
-4381 -5001 0
-4382 -5002 0
-4383 -5003 0
-4384 -5004 0
-4385 -5005 0
-4411 -4486 0
-4412 -4487 0
-4413 -4488 0
-4414 -4489 0
-4415 -4490 0
-4411 -4521 0
-4412 -4522 0
-4413 -4523 0
-4414 -4524 0
-4415 -4525 0
-4411 -4566 0
-4412 -4567 0
-4413 -4568 0
-4414 -4569 0
-4415 -4570 0
-4411 -4591 0
-4412 -4592 0
-4413 -4593 0
-4414 -4594 0
-4415 -4595 0
-4411 -4651 0
-4412 -4652 0
-4413 -4653 0
-4414 -4654 0
-4415 -4655 0
-4416 -4496 0
-4417 -4497 0
-4418 -4498 0
-4419 -4499 0
-4420 -4500 0
-4416 -4506 0
-4417 -4507 0
-4418 -4508 0
-4419 -4509 0
-4420 -4510 0
-4416 -4526 0
-4417 -4527 0
-4418 -4528 0
-4419 -4529 0
-4420 -4530 0
-4416 -4596 0
-4417 -4597 0
-4418 -4598 0
-4419 -4599 0
-4420 -4600 0
-4416 -4671 0
-4417 -4672 0
-4418 -4673 0
-4419 -4674 0
-4420 -4675 0
-4421 -4501 0
-4422 -4502 0
-4423 -4503 0
-4424 -4504 0
-4425 -4505 0
-4421 -4511 0
-4422 -4512 0
-4423 -4513 0
-4424 -4514 0
-4425 -4515 0
-4421 -4561 0
-4422 -4562 0
-4423 -4563 0
-4424 -4564 0
-4425 -4565 0
-4421 -4586 0
-4422 -4587 0
-4423 -4588 0
-4424 -4589 0
-4425 -4590 0
-4421 -4621 0
-4422 -4622 0
-4423 -4623 0
-4424 -4624 0
-4425 -4625 0
-4421 -4676 0
-4422 -4677 0
-4423 -4678 0
-4424 -4679 0
-4425 -4680 0
-4426 -4471 0
-4427 -4472 0
-4428 -4473 0
-4429 -4474 0
-4430 -4475 0
-4426 -4476 0
-4427 -4477 0
-4428 -4478 0
-4429 -4479 0
-4430 -4480 0
-4426 -4506 0
-4427 -4507 0
-4428 -4508 0
-4429 -4509 0
-4430 -4510 0
-4426 -4541 0
-4427 -4542 0
-4428 -4543 0
-4429 -4544 0
-4430 -4545 0
-4426 -4576 0
-4427 -4577 0
-4428 -4578 0
-4429 -4579 0
-4430 -4580 0
-4426 -4606 0
-4427 -4607 0
-4428 -4608 0
-4429 -4609 0
-4430 -4610 0
-4426 -4636 0
-4427 -4637 0
-4428 -4638 0
-4429 -4639 0
-4430 -4640 0
-4426 -4681 0
-4427 -4682 0
-4428 -4683 0
-4429 -4684 0
-4430 -4685 0
-4426 -4686 0
-4427 -4687 0
-4428 -4688 0
-4429 -4689 0
-4430 -4690 0
-4426 -4691 0
-4427 -4692 0
-4428 -4693 0
-4429 -4694 0
-4430 -4695 0
-4426 -4716 0
-4427 -4717 0
-4428 -4718 0
-4429 -4719 0
-4430 -4720 0
-4426 -4721 0
-4427 -4722 0
-4428 -4723 0
-4429 -4724 0
-4430 -4725 0
-4426 -4776 0
-4427 -4777 0
-4428 -4778 0
-4429 -4779 0
-4430 -4780 0
-4431 -4476 0
-4432 -4477 0
-4433 -4478 0
-4434 -4479 0
-4435 -4480 0
-4431 -4481 0
-4432 -4482 0
-4433 -4483 0
-4434 -4484 0
-4435 -4485 0
-4431 -4516 0
-4432 -4517 0
-4433 -4518 0
-4434 -4519 0
-4435 -4520 0
-4431 -4526 0
-4432 -4527 0
-4433 -4528 0
-4434 -4529 0
-4435 -4530 0
-4431 -4551 0
-4432 -4552 0
-4433 -4553 0
-4434 -4554 0
-4435 -4555 0
-4431 -4631 0
-4432 -4632 0
-4433 -4633 0
-4434 -4634 0
-4435 -4635 0
-4431 -4646 0
-4432 -4647 0
-4433 -4648 0
-4434 -4649 0
-4435 -4650 0
-4431 -4691 0
-4432 -4692 0
-4433 -4693 0
-4434 -4694 0
-4435 -4695 0
-4431 -4696 0
-4432 -4697 0
-4433 -4698 0
-4434 -4699 0
-4435 -4700 0
-4431 -4726 0
-4432 -4727 0
-4433 -4728 0
-4434 -4729 0
-4435 -4730 0
-4431 -4731 0
-4432 -4732 0
-4433 -4733 0
-4434 -4734 0
-4435 -4735 0
-4431 -4781 0
-4432 -4782 0
-4433 -4783 0
-4434 -4784 0
-4435 -4785 0
-4436 -4456 0
-4437 -4457 0
-4438 -4458 0
-4439 -4459 0
-4440 -4460 0
-4436 -4481 0
-4437 -4482 0
-4438 -4483 0
-4439 -4484 0
-4440 -4485 0
-4436 -4491 0
-4437 -4492 0
-4438 -4493 0
-4439 -4494 0
-4440 -4495 0
-4436 -4536 0
-4437 -4537 0
-4438 -4538 0
-4439 -4539 0
-4440 -4540 0
-4436 -4561 0
-4437 -4562 0
-4438 -4563 0
-4439 -4564 0
-4440 -4565 0
-4436 -4611 0
-4437 -4612 0
-4438 -4613 0
-4439 -4614 0
-4440 -4615 0
-4436 -4641 0
-4437 -4642 0
-4438 -4643 0
-4439 -4644 0
-4440 -4645 0
-4436 -4656 0
-4437 -4657 0
-4438 -4658 0
-4439 -4659 0
-4440 -4660 0
-4436 -4696 0
-4437 -4697 0
-4438 -4698 0
-4439 -4699 0
-4440 -4700 0
-4436 -4701 0
-4437 -4702 0
-4438 -4703 0
-4439 -4704 0
-4440 -4705 0
-4436 -4736 0
-4437 -4737 0
-4438 -4738 0
-4439 -4739 0
-4440 -4740 0
-4436 -4741 0
-4437 -4742 0
-4438 -4743 0
-4439 -4744 0
-4440 -4745 0
-4436 -4786 0
-4437 -4787 0
-4438 -4788 0
-4439 -4789 0
-4440 -4790 0
-4441 -4456 0
-4442 -4457 0
-4443 -4458 0
-4444 -4459 0
-4445 -4460 0
-4441 -4461 0
-4442 -4462 0
-4443 -4463 0
-4444 -4464 0
-4445 -4465 0
-4441 -4501 0
-4442 -4502 0
-4443 -4503 0
-4444 -4504 0
-4445 -4505 0
-4441 -4521 0
-4442 -4522 0
-4443 -4523 0
-4444 -4524 0
-4445 -4525 0
-4441 -4546 0
-4442 -4547 0
-4443 -4548 0
-4444 -4549 0
-4445 -4550 0
-4441 -4571 0
-4442 -4572 0
-4443 -4573 0
-4444 -4574 0
-4445 -4575 0
-4441 -4616 0
-4442 -4617 0
-4443 -4618 0
-4444 -4619 0
-4445 -4620 0
-4441 -4621 0
-4442 -4622 0
-4443 -4623 0
-4444 -4624 0
-4445 -4625 0
-4441 -4651 0
-4442 -4652 0
-4443 -4653 0
-4444 -4654 0
-4445 -4655 0
-4441 -4666 0
-4442 -4667 0
-4443 -4668 0
-4444 -4669 0
-4445 -4670 0
-4441 -4701 0
-4442 -4702 0
-4443 -4703 0
-4444 -4704 0
-4445 -4705 0
-4441 -4706 0
-4442 -4707 0
-4443 -4708 0
-4444 -4709 0
-4445 -4710 0
-4441 -4746 0
-4442 -4747 0
-4443 -4748 0
-4444 -4749 0
-4445 -4750 0
-4441 -4751 0
-4442 -4752 0
-4443 -4753 0
-4444 -4754 0
-4445 -4755 0
-4441 -4791 0
-4442 -4792 0
-4443 -4793 0
-4444 -4794 0
-4445 -4795 0
-4446 -4461 0
-4447 -4462 0
-4448 -4463 0
-4449 -4464 0
-4450 -4465 0
-4446 -4466 0
-4447 -4467 0
-4448 -4468 0
-4449 -4469 0
-4450 -4470 0
-4446 -4486 0
-4447 -4487 0
-4448 -4488 0
-4449 -4489 0
-4450 -4490 0
-4446 -4511 0
-4447 -4512 0
-4448 -4513 0
-4449 -4514 0
-4450 -4515 0
-4446 -4556 0
-4447 -4557 0
-4448 -4558 0
-4449 -4559 0
-4450 -4560 0
-4446 -4581 0
-4447 -4582 0
-4448 -4583 0
-4449 -4584 0
-4450 -4585 0
-4446 -4661 0
-4447 -4662 0
-4448 -4663 0
-4449 -4664 0
-4450 -4665 0
-4446 -4676 0
-4447 -4677 0
-4448 -4678 0
-4449 -4679 0
-4450 -4680 0
-4446 -4706 0
-4447 -4707 0
-4448 -4708 0
-4449 -4709 0
-4450 -4710 0
-4446 -4711 0
-4447 -4712 0
-4448 -4713 0
-4449 -4714 0
-4450 -4715 0
-4446 -4756 0
-4447 -4757 0
-4448 -4758 0
-4449 -4759 0
-4450 -4760 0
-4446 -4761 0
-4447 -4762 0
-4448 -4763 0
-4449 -4764 0
-4450 -4765 0
-4446 -4796 0
-4447 -4797 0
-4448 -4798 0
-4449 -4799 0
-4450 -4800 0
-4451 -4466 0
-4452 -4467 0
-4453 -4468 0
-4454 -4469 0
-4455 -4470 0
-4451 -4471 0
-4452 -4472 0
-4453 -4473 0
-4454 -4474 0
-4455 -4475 0
-4451 -4496 0
-4452 -4497 0
-4453 -4498 0
-4454 -4499 0
-4455 -4500 0
-4451 -4531 0
-4452 -4532 0
-4453 -4533 0
-4454 -4534 0
-4455 -4535 0
-4451 -4566 0
-4452 -4567 0
-4453 -4568 0
-4454 -4569 0
-4455 -4570 0
-4451 -4601 0
-4452 -4602 0
-4453 -4603 0
-4454 -4604 0
-4455 -4605 0
-4451 -4626 0
-4452 -4627 0
-4453 -4628 0
-4454 -4629 0
-4455 -4630 0
-4451 -4671 0
-4452 -4672 0
-4453 -4673 0
-4454 -4674 0
-4455 -4675 0
-4451 -4686 0
-4452 -4687 0
-4453 -4688 0
-4454 -4689 0
-4455 -4690 0
-4451 -4711 0
-4452 -4712 0
-4453 -4713 0
-4454 -4714 0
-4455 -4715 0
-4451 -4766 0
-4452 -4767 0
-4453 -4768 0
-4454 -4769 0
-4455 -4770 0
-4451 -4771 0
-4452 -4772 0
-4453 -4773 0
-4454 -4774 0
-4455 -4775 0
-4451 -4801 0
-4452 -4802 0
-4453 -4803 0
-4454 -4804 0
-4455 -4805 0
-4456 -4466 0
-4457 -4467 0
-4458 -4468 0
-4459 -4469 0
-4460 -4470 0
-4456 -4476 0
-4457 -4477 0
-4458 -4478 0
-4459 -4479 0
-4460 -4480 0
-4456 -4501 0
-4457 -4502 0
-4458 -4503 0
-4459 -4504 0
-4460 -4505 0
-4456 -4536 0
-4457 -4537 0
-4458 -4538 0
-4459 -4539 0
-4460 -4540 0
-4456 -4571 0
-4457 -4572 0
-4458 -4573 0
-4459 -4574 0
-4460 -4575 0
-4456 -4631 0
-4457 -4632 0
-4458 -4633 0
-4459 -4634 0
-4460 -4635 0
-4456 -4676 0
-4457 -4677 0
-4458 -4678 0
-4459 -4679 0
-4460 -4680 0
-4456 -4776 0
-4457 -4777 0
-4458 -4778 0
-4459 -4779 0
-4460 -4780 0
-4456 -4801 0
-4457 -4802 0
-4458 -4803 0
-4459 -4804 0
-4460 -4805 0
-4456 -4831 0
-4457 -4832 0
-4458 -4833 0
-4459 -4834 0
-4460 -4835 0
-4461 -4471 0
-4462 -4472 0
-4463 -4473 0
-4464 -4474 0
-4465 -4475 0
-4461 -4481 0
-4462 -4482 0
-4463 -4483 0
-4464 -4484 0
-4465 -4485 0
-4461 -4511 0
-4462 -4512 0
-4463 -4513 0
-4464 -4514 0
-4465 -4515 0
-4461 -4521 0
-4462 -4522 0
-4463 -4523 0
-4464 -4524 0
-4465 -4525 0
-4461 -4546 0
-4462 -4547 0
-4463 -4548 0
-4464 -4549 0
-4465 -4550 0
-4461 -4581 0
-4462 -4582 0
-4463 -4583 0
-4464 -4584 0
-4465 -4585 0
-4461 -4586 0
-4462 -4587 0
-4463 -4588 0
-4464 -4589 0
-4465 -4590 0
-4461 -4591 0
-4462 -4592 0
-4463 -4593 0
-4464 -4594 0
-4465 -4595 0
-4461 -4626 0
-4462 -4627 0
-4463 -4628 0
-4464 -4629 0
-4465 -4630 0
-4461 -4641 0
-4462 -4642 0
-4463 -4643 0
-4464 -4644 0
-4465 -4645 0
-4461 -4776 0
-4462 -4777 0
-4463 -4778 0
-4464 -4779 0
-4465 -4780 0
-4461 -4781 0
-4462 -4782 0
-4463 -4783 0
-4464 -4784 0
-4465 -4785 0
-4461 -4806 0
-4462 -4807 0
-4463 -4808 0
-4464 -4809 0
-4465 -4810 0
-4466 -4476 0
-4467 -4477 0
-4468 -4478 0
-4469 -4479 0
-4470 -4480 0
-4466 -4486 0
-4467 -4487 0
-4468 -4488 0
-4469 -4489 0
-4470 -4490 0
-4466 -4531 0
-4467 -4532 0
-4468 -4533 0
-4469 -4534 0
-4470 -4535 0
-4466 -4556 0
-4467 -4557 0
-4468 -4558 0
-4469 -4559 0
-4470 -4560 0
-4466 -4636 0
-4467 -4637 0
-4468 -4638 0
-4469 -4639 0
-4470 -4640 0
-4466 -4651 0
-4467 -4652 0
-4468 -4653 0
-4469 -4654 0
-4470 -4655 0
-4466 -4781 0
-4467 -4782 0
-4468 -4783 0
-4469 -4784 0
-4470 -4785 0
-4466 -4786 0
-4467 -4787 0
-4468 -4788 0
-4469 -4789 0
-4470 -4790 0
-4466 -4811 0
-4467 -4812 0
-4468 -4813 0
-4469 -4814 0
-4470 -4815 0
-4471 -4481 0
-4472 -4482 0
-4473 -4483 0
-4474 -4484 0
-4475 -4485 0
-4471 -4496 0
-4472 -4497 0
-4473 -4498 0
-4474 -4499 0
-4475 -4500 0
-4471 -4541 0
-4472 -4542 0
-4473 -4543 0
-4474 -4544 0
-4475 -4545 0
-4471 -4566 0
-4472 -4567 0
-4473 -4568 0
-4474 -4569 0
-4475 -4570 0
-4471 -4591 0
-4472 -4592 0
-4473 -4593 0
-4474 -4594 0
-4475 -4595 0
-4471 -4596 0
-4472 -4597 0
-4473 -4598 0
-4474 -4599 0
-4475 -4600 0
-4471 -4646 0
-4472 -4647 0
-4473 -4648 0
-4474 -4649 0
-4475 -4650 0
-4471 -4661 0
-4472 -4662 0
-4473 -4663 0
-4474 -4664 0
-4475 -4665 0
-4471 -4786 0
-4472 -4787 0
-4473 -4788 0
-4474 -4789 0
-4475 -4790 0
-4471 -4791 0
-4472 -4792 0
-4473 -4793 0
-4474 -4794 0
-4475 -4795 0
-4476 -4506 0
-4477 -4507 0
-4478 -4508 0
-4479 -4509 0
-4480 -4510 0
-4476 -4551 0
-4477 -4552 0
-4478 -4553 0
-4479 -4554 0
-4480 -4555 0
-4476 -4576 0
-4477 -4577 0
-4478 -4578 0
-4479 -4579 0
-4480 -4580 0
-4476 -4656 0
-4477 -4657 0
-4478 -4658 0
-4479 -4659 0
-4480 -4660 0
-4476 -4671 0
-4477 -4672 0
-4478 -4673 0
-4479 -4674 0
-4480 -4675 0
-4476 -4791 0
-4477 -4792 0
-4478 -4793 0
-4479 -4794 0
-4480 -4795 0
-4476 -4796 0
-4477 -4797 0
-4478 -4798 0
-4479 -4799 0
-4480 -4800 0
-4476 -4816 0
-4477 -4817 0
-4478 -4818 0
-4479 -4819 0
-4480 -4820 0
-4476 -4821 0
-4477 -4822 0
-4478 -4823 0
-4479 -4824 0
-4480 -4825 0
-4481 -4491 0
-4482 -4492 0
-4483 -4493 0
-4484 -4494 0
-4485 -4495 0
-4481 -4516 0
-4482 -4517 0
-4483 -4518 0
-4484 -4519 0
-4485 -4520 0
-4481 -4526 0
-4482 -4527 0
-4483 -4528 0
-4484 -4529 0
-4485 -4530 0
-4481 -4561 0
-4482 -4562 0
-4483 -4563 0
-4484 -4564 0
-4485 -4565 0
-4481 -4586 0
-4482 -4587 0
-4483 -4588 0
-4484 -4589 0
-4485 -4590 0
-4481 -4596 0
-4482 -4597 0
-4483 -4598 0
-4484 -4599 0
-4485 -4600 0
-4481 -4666 0
-4482 -4667 0
-4483 -4668 0
-4484 -4669 0
-4485 -4670 0
-4481 -4681 0
-4482 -4682 0
-4483 -4683 0
-4484 -4684 0
-4485 -4685 0
-4481 -4796 0
-4482 -4797 0
-4483 -4798 0
-4484 -4799 0
-4485 -4800 0
-4481 -4801 0
-4482 -4802 0
-4483 -4803 0
-4484 -4804 0
-4485 -4805 0
-4481 -4826 0
-4482 -4827 0
-4483 -4828 0
-4484 -4829 0
-4485 -4830 0
-4486 -4576 0
-4487 -4577 0
-4488 -4578 0
-4489 -4579 0
-4490 -4580 0
-4486 -4636 0
-4487 -4637 0
-4488 -4638 0
-4489 -4639 0
-4490 -4640 0
-4486 -4771 0
-4487 -4772 0
-4488 -4773 0
-4489 -4774 0
-4490 -4775 0
-4486 -4806 0
-4487 -4807 0
-4488 -4808 0
-4489 -4809 0
-4490 -4810 0
-4486 -4831 0
-4487 -4832 0
-4488 -4833 0
-4489 -4834 0
-4490 -4835 0
-4486 -4836 0
-4487 -4837 0
-4488 -4838 0
-4489 -4839 0
-4490 -4840 0
-4491 -4541 0
-4492 -4542 0
-4493 -4543 0
-4494 -4544 0
-4495 -4545 0
-4491 -4611 0
-4492 -4612 0
-4493 -4613 0
-4494 -4614 0
-4495 -4615 0
-4491 -4681 0
-4492 -4682 0
-4493 -4683 0
-4494 -4684 0
-4495 -4685 0
-4491 -4726 0
-4492 -4727 0
-4493 -4728 0
-4494 -4729 0
-4495 -4730 0
-4491 -4841 0
-4492 -4842 0
-4493 -4843 0
-4494 -4844 0
-4495 -4845 0
-4496 -4526 0
-4497 -4527 0
-4498 -4528 0
-4499 -4529 0
-4500 -4530 0
-4496 -4601 0
-4497 -4602 0
-4498 -4603 0
-4499 -4604 0
-4500 -4605 0
-4496 -4646 0
-4497 -4647 0
-4498 -4648 0
-4499 -4649 0
-4500 -4650 0
-4496 -4721 0
-4497 -4722 0
-4498 -4723 0
-4499 -4724 0
-4500 -4725 0
-4496 -4806 0
-4497 -4807 0
-4498 -4808 0
-4499 -4809 0
-4500 -4810 0
-4496 -4811 0
-4497 -4812 0
-4498 -4813 0
-4499 -4814 0
-4500 -4815 0
-4496 -4846 0
-4497 -4847 0
-4498 -4848 0
-4499 -4849 0
-4500 -4850 0
-4501 -4551 0
-4502 -4552 0
-4503 -4553 0
-4504 -4554 0
-4505 -4555 0
-4501 -4616 0
-4502 -4617 0
-4503 -4618 0
-4504 -4619 0
-4505 -4620 0
-4501 -4631 0
-4502 -4632 0
-4503 -4633 0
-4504 -4634 0
-4505 -4635 0
-4501 -4736 0
-4502 -4737 0
-4503 -4738 0
-4504 -4739 0
-4505 -4740 0
-4501 -4851 0
-4502 -4852 0
-4503 -4853 0
-4504 -4854 0
-4505 -4855 0
-4506 -4536 0
-4507 -4537 0
-4508 -4538 0
-4509 -4539 0
-4510 -4540 0
-4506 -4606 0
-4507 -4607 0
-4508 -4608 0
-4509 -4609 0
-4510 -4610 0
-4506 -4656 0
-4507 -4657 0
-4508 -4658 0
-4509 -4659 0
-4510 -4660 0
-4506 -4731 0
-4507 -4732 0
-4508 -4733 0
-4509 -4734 0
-4510 -4735 0
-4506 -4811 0
-4507 -4812 0
-4508 -4813 0
-4509 -4814 0
-4510 -4815 0
-4506 -4856 0
-4507 -4857 0
-4508 -4858 0
-4509 -4859 0
-4510 -4860 0
-4511 -4561 0
-4512 -4562 0
-4513 -4563 0
-4514 -4564 0
-4515 -4565 0
-4511 -4641 0
-4512 -4642 0
-4513 -4643 0
-4514 -4644 0
-4515 -4645 0
-4511 -4746 0
-4512 -4747 0
-4513 -4748 0
-4514 -4749 0
-4515 -4750 0
-4511 -4861 0
-4512 -4862 0
-4513 -4863 0
-4514 -4864 0
-4515 -4865 0
-4516 -4546 0
-4517 -4547 0
-4518 -4548 0
-4519 -4549 0
-4520 -4550 0
-4516 -4666 0
-4517 -4667 0
-4518 -4668 0
-4519 -4669 0
-4520 -4670 0
-4516 -4741 0
-4517 -4742 0
-4518 -4743 0
-4519 -4744 0
-4520 -4745 0
-4516 -4816 0
-4517 -4817 0
-4518 -4818 0
-4519 -4819 0
-4520 -4820 0
-4516 -4866 0
-4517 -4867 0
-4518 -4868 0
-4519 -4869 0
-4520 -4870 0
-4521 -4566 0
-4522 -4567 0
-4523 -4568 0
-4524 -4569 0
-4525 -4570 0
-4521 -4621 0
-4522 -4622 0
-4523 -4623 0
-4524 -4624 0
-4525 -4625 0
-4521 -4626 0
-4522 -4627 0
-4523 -4628 0
-4524 -4629 0
-4525 -4630 0
-4521 -4761 0
-4522 -4762 0
-4523 -4763 0
-4524 -4764 0
-4525 -4765 0
-4521 -4826 0
-4522 -4827 0
-4523 -4828 0
-4524 -4829 0
-4525 -4830 0
-4521 -4831 0
-4522 -4832 0
-4523 -4833 0
-4524 -4834 0
-4525 -4835 0
-4521 -4886 0
-4522 -4887 0
-4523 -4888 0
-4524 -4889 0
-4525 -4890 0
-4526 -4536 0
-4527 -4537 0
-4528 -4538 0
-4529 -4539 0
-4530 -4540 0
-4526 -4576 0
-4527 -4577 0
-4528 -4578 0
-4529 -4579 0
-4530 -4580 0
-4526 -4691 0
-4527 -4692 0
-4528 -4693 0
-4529 -4694 0
-4530 -4695 0
-4526 -4801 0
-4527 -4802 0
-4528 -4803 0
-4529 -4804 0
-4530 -4805 0
-4526 -4806 0
-4527 -4807 0
-4528 -4808 0
-4529 -4809 0
-4530 -4810 0
-4526 -4841 0
-4527 -4842 0
-4528 -4843 0
-4529 -4844 0
-4530 -4845 0
-4526 -4891 0
-4527 -4892 0
-4528 -4893 0
-4529 -4894 0
-4530 -4895 0
-4526 -4896 0
-4527 -4897 0
-4528 -4898 0
-4529 -4899 0
-4530 -4900 0
-4526 -4916 0
-4527 -4917 0
-4528 -4918 0
-4529 -4919 0
-4530 -4920 0
-4526 -4946 0
-4527 -4947 0
-4528 -4948 0
-4529 -4949 0
-4530 -4950 0
-4531 -4541 0
-4532 -4542 0
-4533 -4543 0
-4534 -4544 0
-4535 -4545 0
-4531 -4581 0
-4532 -4582 0
-4533 -4583 0
-4534 -4584 0
-4535 -4585 0
-4531 -4686 0
-4532 -4687 0
-4533 -4688 0
-4534 -4689 0
-4535 -4690 0
-4531 -4781 0
-4532 -4782 0
-4533 -4783 0
-4534 -4784 0
-4535 -4785 0
-4531 -4836 0
-4532 -4837 0
-4533 -4838 0
-4534 -4839 0
-4535 -4840 0
-4531 -4846 0
-4532 -4847 0
-4533 -4848 0
-4534 -4849 0
-4535 -4850 0
-4531 -4896 0
-4532 -4897 0
-4533 -4898 0
-4534 -4899 0
-4535 -4900 0
-4531 -4921 0
-4532 -4922 0
-4533 -4923 0
-4534 -4924 0
-4535 -4925 0
-4531 -4951 0
-4532 -4952 0
-4533 -4953 0
-4534 -4954 0
-4535 -4955 0
-4536 -4546 0
-4537 -4547 0
-4538 -4548 0
-4539 -4549 0
-4540 -4550 0
-4536 -4696 0
-4537 -4697 0
-4538 -4698 0
-4539 -4699 0
-4540 -4700 0
-4536 -4776 0
-4537 -4777 0
-4538 -4778 0
-4539 -4779 0
-4540 -4780 0
-4536 -4811 0
-4537 -4812 0
-4538 -4813 0
-4539 -4814 0
-4540 -4815 0
-4536 -4841 0
-4537 -4842 0
-4538 -4843 0
-4539 -4844 0
-4540 -4845 0
-4536 -4851 0
-4537 -4852 0
-4538 -4853 0
-4539 -4854 0
-4540 -4855 0
-4536 -4921 0
-4537 -4922 0
-4538 -4923 0
-4539 -4924 0
-4540 -4925 0
-4536 -4956 0
-4537 -4957 0
-4538 -4958 0
-4539 -4959 0
-4540 -4960 0
-4541 -4551 0
-4542 -4552 0
-4543 -4553 0
-4544 -4554 0
-4545 -4555 0
-4541 -4691 0
-4542 -4692 0
-4543 -4693 0
-4544 -4694 0
-4545 -4695 0
-4541 -4786 0
-4542 -4787 0
-4543 -4788 0
-4544 -4789 0
-4545 -4790 0
-4541 -4846 0
-4542 -4847 0
-4543 -4848 0
-4544 -4849 0
-4545 -4850 0
-4541 -4856 0
-4542 -4857 0
-4543 -4858 0
-4544 -4859 0
-4545 -4860 0
-4541 -4926 0
-4542 -4927 0
-4543 -4928 0
-4544 -4929 0
-4545 -4930 0
-4541 -4961 0
-4542 -4962 0
-4543 -4963 0
-4544 -4964 0
-4545 -4965 0
-4546 -4556 0
-4547 -4557 0
-4548 -4558 0
-4549 -4559 0
-4550 -4560 0
-4546 -4701 0
-4547 -4702 0
-4548 -4703 0
-4549 -4704 0
-4550 -4705 0
-4546 -4781 0
-4547 -4782 0
-4548 -4783 0
-4549 -4784 0
-4550 -4785 0
-4546 -4851 0
-4547 -4852 0
-4548 -4853 0
-4549 -4854 0
-4550 -4855 0
-4546 -4861 0
-4547 -4862 0
-4548 -4863 0
-4549 -4864 0
-4550 -4865 0
-4546 -4901 0
-4547 -4902 0
-4548 -4903 0
-4549 -4904 0
-4550 -4905 0
-4546 -4926 0
-4547 -4927 0
-4548 -4928 0
-4549 -4929 0
-4550 -4930 0
-4546 -4966 0
-4547 -4967 0
-4548 -4968 0
-4549 -4969 0
-4550 -4970 0
-4551 -4561 0
-4552 -4562 0
-4553 -4563 0
-4554 -4564 0
-4555 -4565 0
-4551 -4696 0
-4552 -4697 0
-4553 -4698 0
-4554 -4699 0
-4555 -4700 0
-4551 -4791 0
-4552 -4792 0
-4553 -4793 0
-4554 -4794 0
-4555 -4795 0
-4551 -4856 0
-4552 -4857 0
-4553 -4858 0
-4554 -4859 0
-4555 -4860 0
-4551 -4866 0
-4552 -4867 0
-4553 -4868 0
-4554 -4869 0
-4555 -4870 0
-4551 -4901 0
-4552 -4902 0
-4553 -4903 0
-4554 -4904 0
-4555 -4905 0
-4551 -4931 0
-4552 -4932 0
-4553 -4933 0
-4554 -4934 0
-4555 -4935 0
-4551 -4971 0
-4552 -4972 0
-4553 -4973 0
-4554 -4974 0
-4555 -4975 0
-4556 -4566 0
-4557 -4567 0
-4558 -4568 0
-4559 -4569 0
-4560 -4570 0
-4556 -4706 0
-4557 -4707 0
-4558 -4708 0
-4559 -4709 0
-4560 -4710 0
-4556 -4786 0
-4557 -4787 0
-4558 -4788 0
-4559 -4789 0
-4560 -4790 0
-4556 -4816 0
-4557 -4817 0
-4558 -4818 0
-4559 -4819 0
-4560 -4820 0
-4556 -4861 0
-4557 -4862 0
-4558 -4863 0
-4559 -4864 0
-4560 -4865 0
-4556 -4871 0
-4557 -4872 0
-4558 -4873 0
-4559 -4874 0
-4560 -4875 0
-4556 -4906 0
-4557 -4907 0
-4558 -4908 0
-4559 -4909 0
-4560 -4910 0
-4556 -4931 0
-4557 -4932 0
-4558 -4933 0
-4559 -4934 0
-4560 -4935 0
-4556 -4976 0
-4557 -4977 0
-4558 -4978 0
-4559 -4979 0
-4560 -4980 0
-4561 -4571 0
-4562 -4572 0
-4563 -4573 0
-4564 -4574 0
-4565 -4575 0
-4561 -4701 0
-4562 -4702 0
-4563 -4703 0
-4564 -4704 0
-4565 -4705 0
-4561 -4796 0
-4562 -4797 0
-4563 -4798 0
-4564 -4799 0
-4565 -4800 0
-4561 -4866 0
-4562 -4867 0
-4563 -4868 0
-4564 -4869 0
-4565 -4870 0
-4561 -4876 0
-4562 -4877 0
-4563 -4878 0
-4564 -4879 0
-4565 -4880 0
-4561 -4906 0
-4562 -4907 0
-4563 -4908 0
-4564 -4909 0
-4565 -4910 0
-4561 -4936 0
-4562 -4937 0
-4563 -4938 0
-4564 -4939 0
-4565 -4940 0
-4561 -4981 0
-4562 -4982 0
-4563 -4983 0
-4564 -4984 0
-4565 -4985 0
-4566 -4576 0
-4567 -4577 0
-4568 -4578 0
-4569 -4579 0
-4570 -4580 0
-4566 -4711 0
-4567 -4712 0
-4568 -4713 0
-4569 -4714 0
-4570 -4715 0
-4566 -4791 0
-4567 -4792 0
-4568 -4793 0
-4569 -4794 0
-4570 -4795 0
-4566 -4826 0
-4567 -4827 0
-4568 -4828 0
-4569 -4829 0
-4570 -4830 0
-4566 -4871 0
-4567 -4872 0
-4568 -4873 0
-4569 -4874 0
-4570 -4875 0
-4566 -4881 0
-4567 -4882 0
-4568 -4883 0
-4569 -4884 0
-4570 -4885 0
-4566 -4936 0
-4567 -4937 0
-4568 -4938 0
-4569 -4939 0
-4570 -4940 0
-4566 -4986 0
-4567 -4987 0
-4568 -4988 0
-4569 -4989 0
-4570 -4990 0
-4571 -4581 0
-4572 -4582 0
-4573 -4583 0
-4574 -4584 0
-4575 -4585 0
-4571 -4706 0
-4572 -4707 0
-4573 -4708 0
-4574 -4709 0
-4575 -4710 0
-4571 -4801 0
-4572 -4802 0
-4573 -4803 0
-4574 -4804 0
-4575 -4805 0
-4571 -4821 0
-4572 -4822 0
-4573 -4823 0
-4574 -4824 0
-4575 -4825 0
-4571 -4876 0
-4572 -4877 0
-4573 -4878 0
-4574 -4879 0
-4575 -4880 0
-4571 -4886 0
-4572 -4887 0
-4573 -4888 0
-4574 -4889 0
-4575 -4890 0
-4571 -4941 0
-4572 -4942 0
-4573 -4943 0
-4574 -4944 0
-4575 -4945 0
-4571 -4991 0
-4572 -4992 0
-4573 -4993 0
-4574 -4994 0
-4575 -4995 0
-4576 -4686 0
-4577 -4687 0
-4578 -4688 0
-4579 -4689 0
-4580 -4690 0
-4576 -4796 0
-4577 -4797 0
-4578 -4798 0
-4579 -4799 0
-4580 -4800 0
-4576 -4831 0
-4577 -4832 0
-4578 -4833 0
-4579 -4834 0
-4580 -4835 0
-4576 -4881 0
-4577 -4882 0
-4578 -4883 0
-4579 -4884 0
-4580 -4885 0
-4576 -4891 0
-4577 -4892 0
-4578 -4893 0
-4579 -4894 0
-4580 -4895 0
-4576 -4911 0
-4577 -4912 0
-4578 -4913 0
-4579 -4914 0
-4580 -4915 0
-4576 -4941 0
-4577 -4942 0
-4578 -4943 0
-4579 -4944 0
-4580 -4945 0
-4576 -4996 0
-4577 -4997 0
-4578 -4998 0
-4579 -4999 0
-4580 -5000 0
-4581 -4711 0
-4582 -4712 0
-4583 -4713 0
-4584 -4714 0
-4585 -4715 0
-4581 -4776 0
-4582 -4777 0
-4583 -4778 0
-4584 -4779 0
-4585 -4780 0
-4581 -4836 0
-4582 -4837 0
-4583 -4838 0
-4584 -4839 0
-4585 -4840 0
-4581 -4886 0
-4582 -4887 0
-4583 -4888 0
-4584 -4889 0
-4585 -4890 0
-4581 -4911 0
-4582 -4912 0
-4583 -4913 0
-4584 -4914 0
-4585 -4915 0
-4581 -4916 0
-4582 -4917 0
-4583 -4918 0
-4584 -4919 0
-4585 -4920 0
-4581 -5001 0
-4582 -5002 0
-4583 -5003 0
-4584 -5004 0
-4585 -5005 0
-4586 -4631 0
-4587 -4632 0
-4588 -4633 0
-4589 -4634 0
-4590 -4635 0
-4586 -4676 0
-4587 -4677 0
-4588 -4678 0
-4589 -4679 0
-4590 -4680 0
-4591 -4636 0
-4592 -4637 0
-4593 -4638 0
-4594 -4639 0
-4595 -4640 0
-4591 -4651 0
-4592 -4652 0
-4593 -4653 0
-4594 -4654 0
-4595 -4655 0
-4596 -4656 0
-4597 -4657 0
-4598 -4658 0
-4599 -4659 0
-4600 -4660 0
-4596 -4671 0
-4597 -4672 0
-4598 -4673 0
-4599 -4674 0
-4600 -4675 0
-4601 -4636 0
-4602 -4637 0
-4603 -4638 0
-4604 -4639 0
-4605 -4640 0
-4601 -4771 0
-4602 -4772 0
-4603 -4773 0
-4604 -4774 0
-4605 -4775 0
-4601 -4916 0
-4602 -4917 0
-4603 -4918 0
-4604 -4919 0
-4605 -4920 0
-4601 -4951 0
-4602 -4952 0
-4603 -4953 0
-4604 -4954 0
-4605 -4955 0
-4606 -4646 0
-4607 -4647 0
-4608 -4648 0
-4609 -4649 0
-4610 -4650 0
-4606 -4721 0
-4607 -4722 0
-4608 -4723 0
-4609 -4724 0
-4610 -4725 0
-4606 -4921 0
-4607 -4922 0
-4608 -4923 0
-4609 -4924 0
-4610 -4925 0
-4606 -4961 0
-4607 -4962 0
-4608 -4963 0
-4609 -4964 0
-4610 -4965 0
-4611 -4631 0
-4612 -4632 0
-4613 -4633 0
-4614 -4634 0
-4615 -4635 0
-4611 -4736 0
-4612 -4737 0
-4613 -4738 0
-4614 -4739 0
-4615 -4740 0
-4611 -4926 0
-4612 -4927 0
-4613 -4928 0
-4614 -4929 0
-4615 -4930 0
-4611 -4956 0
-4612 -4957 0
-4613 -4958 0
-4614 -4959 0
-4615 -4960 0
-4616 -4641 0
-4617 -4642 0
-4618 -4643 0
-4619 -4644 0
-4620 -4645 0
-4616 -4746 0
-4617 -4747 0
-4618 -4748 0
-4619 -4749 0
-4620 -4750 0
-4616 -4931 0
-4617 -4932 0
-4618 -4933 0
-4619 -4934 0
-4620 -4935 0
-4616 -4966 0
-4617 -4967 0
-4618 -4968 0
-4619 -4969 0
-4620 -4970 0
-4621 -4676 0
-4622 -4677 0
-4623 -4678 0
-4624 -4679 0
-4625 -4680 0
-4621 -4751 0
-4622 -4752 0
-4623 -4753 0
-4624 -4754 0
-4625 -4755 0
-4621 -4936 0
-4622 -4937 0
-4623 -4938 0
-4624 -4939 0
-4625 -4940 0
-4621 -4991 0
-4622 -4992 0
-4623 -4993 0
-4624 -4994 0
-4625 -4995 0
-4626 -4801 0
-4627 -4802 0
-4628 -4803 0
-4629 -4804 0
-4630 -4805 0
-4626 -4806 0
-4627 -4807 0
-4628 -4808 0
-4629 -4809 0
-4630 -4810 0
-4626 -5001 0
-4627 -5002 0
-4628 -5003 0
-4629 -5004 0
-4630 -5005 0
-4626 -5006 0
-4627 -5007 0
-4628 -5008 0
-4629 -5009 0
-4630 -5010 0
-4631 -4781 0
-4632 -4782 0
-4633 -4783 0
-4634 -4784 0
-4635 -4785 0
-4631 -4956 0
-4632 -4957 0
-4633 -4958 0
-4634 -4959 0
-4635 -4960 0
-4636 -4776 0
-4637 -4777 0
-4638 -4778 0
-4639 -4779 0
-4640 -4780 0
-4636 -4811 0
-4637 -4812 0
-4638 -4813 0
-4639 -4814 0
-4640 -4815 0
-4636 -4951 0
-4637 -4952 0
-4638 -4953 0
-4639 -4954 0
-4640 -4955 0
-4641 -4786 0
-4642 -4787 0
-4643 -4788 0
-4644 -4789 0
-4645 -4790 0
-4641 -4966 0
-4642 -4967 0
-4643 -4968 0
-4644 -4969 0
-4645 -4970 0
-4646 -4781 0
-4647 -4782 0
-4648 -4783 0
-4649 -4784 0
-4650 -4785 0
-4646 -4961 0
-4647 -4962 0
-4648 -4963 0
-4649 -4964 0
-4650 -4965 0
-4646 -5011 0
-4647 -5012 0
-4648 -5013 0
-4649 -5014 0
-4650 -5015 0
-4651 -4791 0
-4652 -4792 0
-4653 -4793 0
-4654 -4794 0
-4655 -4795 0
-4651 -4976 0
-4652 -4977 0
-4653 -4978 0
-4654 -4979 0
-4655 -4980 0
-4656 -4786 0
-4657 -4787 0
-4658 -4788 0
-4659 -4789 0
-4660 -4790 0
-4656 -4816 0
-4657 -4817 0
-4658 -4818 0
-4659 -4819 0
-4660 -4820 0
-4656 -4971 0
-4657 -4972 0
-4658 -4973 0
-4659 -4974 0
-4660 -4975 0
-4661 -4796 0
-4662 -4797 0
-4663 -4798 0
-4664 -4799 0
-4665 -4800 0
-4661 -4986 0
-4662 -4987 0
-4663 -4988 0
-4664 -4989 0
-4665 -4990 0
-4661 -5016 0
-4662 -5017 0
-4663 -5018 0
-4664 -5019 0
-4665 -5020 0
-4666 -4791 0
-4667 -4792 0
-4668 -4793 0
-4669 -4794 0
-4670 -4795 0
-4666 -4826 0
-4667 -4827 0
-4668 -4828 0
-4669 -4829 0
-4670 -4830 0
-4666 -4981 0
-4667 -4982 0
-4668 -4983 0
-4669 -4984 0
-4670 -4985 0
-4671 -4801 0
-4672 -4802 0
-4673 -4803 0
-4674 -4804 0
-4675 -4805 0
-4671 -4821 0
-4672 -4822 0
-4673 -4823 0
-4674 -4824 0
-4675 -4825 0
-4671 -4996 0
-4672 -4997 0
-4673 -4998 0
-4674 -4999 0
-4675 -5000 0
-4676 -4796 0
-4677 -4797 0
-4678 -4798 0
-4679 -4799 0
-4680 -4800 0
-4676 -4831 0
-4677 -4832 0
-4678 -4833 0
-4679 -4834 0
-4680 -4835 0
-4676 -4991 0
-4677 -4992 0
-4678 -4993 0
-4679 -4994 0
-4680 -4995 0
-4676 -5021 0
-4677 -5022 0
-4678 -5023 0
-4679 -5024 0
-4680 -5025 0
-4681 -4776 0
-4682 -4777 0
-4683 -4778 0
-4684 -4779 0
-4685 -4780 0
-4681 -4946 0
-4682 -4947 0
-4683 -4948 0
-4684 -4949 0
-4685 -4950 0
-4686 -4721 0
-4687 -4722 0
-4688 -4723 0
-4689 -4724 0
-4690 -4725 0
-4686 -4766 0
-4687 -4767 0
-4688 -4768 0
-4689 -4769 0
-4690 -4770 0
-4686 -4896 0
-4687 -4897 0
-4688 -4898 0
-4689 -4899 0
-4690 -4900 0
-4686 -4911 0
-4687 -4912 0
-4688 -4913 0
-4689 -4914 0
-4690 -4915 0
-4686 -5006 0
-4687 -5007 0
-4688 -5008 0
-4689 -5009 0
-4690 -5010 0
-4691 -4716 0
-4692 -4717 0
-4693 -4718 0
-4694 -4719 0
-4695 -4720 0
-4691 -4731 0
-4692 -4732 0
-4693 -4733 0
-4694 -4734 0
-4695 -4735 0
-4691 -4896 0
-4692 -4897 0
-4693 -4898 0
-4694 -4899 0
-4695 -4900 0
-4696 -4726 0
-4697 -4727 0
-4698 -4728 0
-4699 -4729 0
-4700 -4730 0
-4696 -4741 0
-4697 -4742 0
-4698 -4743 0
-4699 -4744 0
-4700 -4745 0
-4696 -4901 0
-4697 -4902 0
-4698 -4903 0
-4699 -4904 0
-4700 -4905 0
-4696 -5011 0
-4697 -5012 0
-4698 -5013 0
-4699 -5014 0
-4700 -5015 0
-4701 -4736 0
-4702 -4737 0
-4703 -4738 0
-4704 -4739 0
-4705 -4740 0
-4701 -4751 0
-4702 -4752 0
-4703 -4753 0
-4704 -4754 0
-4705 -4755 0
-4701 -4901 0
-4702 -4902 0
-4703 -4903 0
-4704 -4904 0
-4705 -4905 0
-4701 -4906 0
-4702 -4907 0
-4703 -4908 0
-4704 -4909 0
-4705 -4910 0
-4706 -4746 0
-4707 -4747 0
-4708 -4748 0
-4709 -4749 0
-4710 -4750 0
-4706 -4761 0
-4707 -4762 0
-4708 -4763 0
-4709 -4764 0
-4710 -4765 0
-4706 -4906 0
-4707 -4907 0
-4708 -4908 0
-4709 -4909 0
-4710 -4910 0
-4706 -5016 0
-4707 -5017 0
-4708 -5018 0
-4709 -5019 0
-4710 -5020 0
-4711 -4756 0
-4712 -4757 0
-4713 -4758 0
-4714 -4759 0
-4715 -4760 0
-4711 -4771 0
-4712 -4772 0
-4713 -4773 0
-4714 -4774 0
-4715 -4775 0
-4711 -4911 0
-4712 -4912 0
-4713 -4913 0
-4714 -4914 0
-4715 -4915 0
-4711 -5021 0
-4712 -5022 0
-4713 -5023 0
-4714 -5024 0
-4715 -5025 0
-4716 -4891 0
-4717 -4892 0
-4718 -4893 0
-4719 -4894 0
-4720 -4895 0
-4716 -4951 0
-4717 -4952 0
-4718 -4953 0
-4719 -4954 0
-4720 -4955 0
-4716 -5026 0
-4717 -5027 0
-4718 -5028 0
-4719 -5029 0
-4720 -5030 0
-4721 -4846 0
-4722 -4847 0
-4723 -4848 0
-4724 -4849 0
-4725 -4850 0
-4721 -4946 0
-4722 -4947 0
-4723 -4948 0
-4724 -4949 0
-4725 -4950 0
-4721 -5031 0
-4722 -5032 0
-4723 -5033 0
-4724 -5034 0
-4725 -5035 0
-4726 -4841 0
-4727 -4842 0
-4728 -4843 0
-4729 -4844 0
-4730 -4845 0
-4726 -4961 0
-4727 -4962 0
-4728 -4963 0
-4729 -4964 0
-4730 -4965 0
-4726 -5036 0
-4727 -5037 0
-4728 -5038 0
-4729 -5039 0
-4730 -5040 0
-4731 -4856 0
-4732 -4857 0
-4733 -4858 0
-4734 -4859 0
-4735 -4860 0
-4731 -4956 0
-4732 -4957 0
-4733 -4958 0
-4734 -4959 0
-4735 -4960 0
-4731 -5041 0
-4732 -5042 0
-4733 -5043 0
-4734 -5044 0
-4735 -5045 0
-4736 -4851 0
-4737 -4852 0
-4738 -4853 0
-4739 -4854 0
-4740 -4855 0
-4736 -4971 0
-4737 -4972 0
-4738 -4973 0
-4739 -4974 0
-4740 -4975 0
-4736 -5046 0
-4737 -5047 0
-4738 -5048 0
-4739 -5049 0
-4740 -5050 0
-4741 -4866 0
-4742 -4867 0
-4743 -4868 0
-4744 -4869 0
-4745 -4870 0
-4741 -4966 0
-4742 -4967 0
-4743 -4968 0
-4744 -4969 0
-4745 -4970 0
-4741 -5051 0
-4742 -5052 0
-4743 -5053 0
-4744 -5054 0
-4745 -5055 0
-4746 -4861 0
-4747 -4862 0
-4748 -4863 0
-4749 -4864 0
-4750 -4865 0
-4746 -4981 0
-4747 -4982 0
-4748 -4983 0
-4749 -4984 0
-4750 -4985 0
-4746 -5056 0
-4747 -5057 0
-4748 -5058 0
-4749 -5059 0
-4750 -5060 0
-4751 -4876 0
-4752 -4877 0
-4753 -4878 0
-4754 -4879 0
-4755 -4880 0
-4751 -4976 0
-4752 -4977 0
-4753 -4978 0
-4754 -4979 0
-4755 -4980 0
-4751 -5061 0
-4752 -5062 0
-4753 -5063 0
-4754 -5064 0
-4755 -5065 0
-4756 -4871 0
-4757 -4872 0
-4758 -4873 0
-4759 -4874 0
-4760 -4875 0
-4756 -4991 0
-4757 -4992 0
-4758 -4993 0
-4759 -4994 0
-4760 -4995 0
-4756 -5066 0
-4757 -5067 0
-4758 -5068 0
-4759 -5069 0
-4760 -5070 0
-4761 -4886 0
-4762 -4887 0
-4763 -4888 0
-4764 -4889 0
-4765 -4890 0
-4761 -4986 0
-4762 -4987 0
-4763 -4988 0
-4764 -4989 0
-4765 -4990 0
-4761 -5071 0
-4762 -5072 0
-4763 -5073 0
-4764 -5074 0
-4765 -5075 0
-4766 -4881 0
-4767 -4882 0
-4768 -4883 0
-4769 -4884 0
-4770 -4885 0
-4766 -5001 0
-4767 -5002 0
-4768 -5003 0
-4769 -5004 0
-4770 -5005 0
-4766 -5076 0
-4767 -5077 0
-4768 -5078 0
-4769 -5079 0
-4770 -5080 0
-4771 -4836 0
-4772 -4837 0
-4773 -4838 0
-4774 -4839 0
-4775 -4840 0
-4771 -4996 0
-4772 -4997 0
-4773 -4998 0
-4774 -4999 0
-4775 -5000 0
-4771 -5081 0
-4772 -5082 0
-4773 -5083 0
-4774 -5084 0
-4775 -5085 0
-4776 -4831 0
-4777 -4832 0
-4778 -4833 0
-4779 -4834 0
-4780 -4835 0
-4776 -4916 0
-4777 -4917 0
-4778 -4918 0
-4779 -4919 0
-4780 -4920 0
-4776 -4921 0
-4777 -4922 0
-4778 -4923 0
-4779 -4924 0
-4780 -4925 0
-4776 -5006 0
-4777 -5007 0
-4778 -5008 0
-4779 -5009 0
-4780 -5010 0
-4776 -5026 0
-4777 -5027 0
-4778 -5028 0
-4779 -5029 0
-4780 -5030 0
-4776 -5031 0
-4777 -5032 0
-4778 -5033 0
-4779 -5034 0
-4780 -5035 0
-4781 -4806 0
-4782 -4807 0
-4783 -4808 0
-4784 -4809 0
-4785 -4810 0
-4781 -4921 0
-4782 -4922 0
-4783 -4923 0
-4784 -4924 0
-4785 -4925 0
-4781 -4926 0
-4782 -4927 0
-4783 -4928 0
-4784 -4929 0
-4785 -4930 0
-4781 -5036 0
-4782 -5037 0
-4783 -5038 0
-4784 -5039 0
-4785 -5040 0
-4781 -5041 0
-4782 -5042 0
-4783 -5043 0
-4784 -5044 0
-4785 -5045 0
-4786 -4811 0
-4787 -4812 0
-4788 -4813 0
-4789 -4814 0
-4790 -4815 0
-4786 -4926 0
-4787 -4927 0
-4788 -4928 0
-4789 -4929 0
-4790 -4930 0
-4786 -4931 0
-4787 -4932 0
-4788 -4933 0
-4789 -4934 0
-4790 -4935 0
-4786 -5011 0
-4787 -5012 0
-4788 -5013 0
-4789 -5014 0
-4790 -5015 0
-4786 -5046 0
-4787 -5047 0
-4788 -5048 0
-4789 -5049 0
-4790 -5050 0
-4786 -5051 0
-4787 -5052 0
-4788 -5053 0
-4789 -5054 0
-4790 -5055 0
-4791 -4821 0
-4792 -4822 0
-4793 -4823 0
-4794 -4824 0
-4795 -4825 0
-4791 -4931 0
-4792 -4932 0
-4793 -4933 0
-4794 -4934 0
-4795 -4935 0
-4791 -4936 0
-4792 -4937 0
-4793 -4938 0
-4794 -4939 0
-4795 -4940 0
-4791 -5016 0
-4792 -5017 0
-4793 -5018 0
-4794 -5019 0
-4795 -5020 0
-4791 -5056 0
-4792 -5057 0
-4793 -5058 0
-4794 -5059 0
-4795 -5060 0
-4791 -5061 0
-4792 -5062 0
-4793 -5063 0
-4794 -5064 0
-4795 -5065 0
-4796 -4816 0
-4797 -4817 0
-4798 -4818 0
-4799 -4819 0
-4800 -4820 0
-4796 -4936 0
-4797 -4937 0
-4798 -4938 0
-4799 -4939 0
-4800 -4940 0
-4796 -4941 0
-4797 -4942 0
-4798 -4943 0
-4799 -4944 0
-4800 -4945 0
-4796 -5066 0
-4797 -5067 0
-4798 -5068 0
-4799 -5069 0
-4800 -5070 0
-4796 -5071 0
-4797 -5072 0
-4798 -5073 0
-4799 -5074 0
-4800 -5075 0
-4801 -4826 0
-4802 -4827 0
-4803 -4828 0
-4804 -4829 0
-4805 -4830 0
-4801 -4916 0
-4802 -4917 0
-4803 -4918 0
-4804 -4919 0
-4805 -4920 0
-4801 -4941 0
-4802 -4942 0
-4803 -4943 0
-4804 -4944 0
-4805 -4945 0
-4801 -5021 0
-4802 -5022 0
-4803 -5023 0
-4804 -5024 0
-4805 -5025 0
-4801 -5076 0
-4802 -5077 0
-4803 -5078 0
-4804 -5079 0
-4805 -5080 0
-4801 -5081 0
-4802 -5082 0
-4803 -5083 0
-4804 -5084 0
-4805 -5085 0
-4806 -4836 0
-4807 -4837 0
-4808 -4838 0
-4809 -4839 0
-4810 -4840 0
-4806 -5031 0
-4807 -5032 0
-4808 -5033 0
-4809 -5034 0
-4810 -5035 0
-4811 -4846 0
-4812 -4847 0
-4813 -4848 0
-4814 -4849 0
-4815 -4850 0
-4811 -5011 0
-4812 -5012 0
-4813 -5013 0
-4814 -5014 0
-4815 -5015 0
-4811 -5041 0
-4812 -5042 0
-4813 -5043 0
-4814 -5044 0
-4815 -5045 0
-4816 -4866 0
-4817 -4867 0
-4818 -4868 0
-4819 -4869 0
-4820 -4870 0
-4816 -5061 0
-4817 -5062 0
-4818 -5063 0
-4819 -5064 0
-4820 -5065 0
-4821 -4881 0
-4822 -4882 0
-4823 -4883 0
-4824 -4884 0
-4825 -4885 0
-4821 -5016 0
-4822 -5017 0
-4823 -5018 0
-4824 -5019 0
-4825 -5020 0
-4821 -5066 0
-4822 -5067 0
-4823 -5068 0
-4824 -5069 0
-4825 -5070 0
-4826 -4876 0
-4827 -4877 0
-4828 -4878 0
-4829 -4879 0
-4830 -4880 0
-4826 -5021 0
-4827 -5022 0
-4828 -5023 0
-4829 -5024 0
-4830 -5025 0
-4826 -5071 0
-4827 -5072 0
-4828 -5073 0
-4829 -5074 0
-4830 -5075 0
-4831 -4886 0
-4832 -4887 0
-4833 -4888 0
-4834 -4889 0
-4835 -4890 0
-4831 -5006 0
-4832 -5007 0
-4833 -5008 0
-4834 -5009 0
-4835 -5010 0
-4831 -5081 0
-4832 -5082 0
-4833 -5083 0
-4834 -5084 0
-4835 -5085 0
-4836 -4891 0
-4837 -4892 0
-4838 -4893 0
-4839 -4894 0
-4840 -4895 0
-4836 -4951 0
-4837 -4952 0
-4838 -4953 0
-4839 -4954 0
-4840 -4955 0
-4836 -5001 0
-4837 -5002 0
-4838 -5003 0
-4839 -5004 0
-4840 -5005 0
-4836 -5031 0
-4837 -5032 0
-4838 -5033 0
-4839 -5034 0
-4840 -5035 0
-4841 -4846 0
-4842 -4847 0
-4843 -4848 0
-4844 -4849 0
-4845 -4850 0
-4841 -4946 0
-4842 -4947 0
-4843 -4948 0
-4844 -4949 0
-4845 -4950 0
-4841 -4956 0
-4842 -4957 0
-4843 -4958 0
-4844 -4959 0
-4845 -4960 0
-4841 -5026 0
-4842 -5027 0
-4843 -5028 0
-4844 -5029 0
-4845 -5030 0
-4846 -4951 0
-4847 -4952 0
-4848 -4953 0
-4849 -4954 0
-4850 -4955 0
-4846 -4961 0
-4847 -4962 0
-4848 -4963 0
-4849 -4964 0
-4850 -4965 0
-4846 -5041 0
-4847 -5042 0
-4848 -5043 0
-4849 -5044 0
-4850 -5045 0
-4851 -4856 0
-4852 -4857 0
-4853 -4858 0
-4854 -4859 0
-4855 -4860 0
-4851 -4956 0
-4852 -4957 0
-4853 -4958 0
-4854 -4959 0
-4855 -4960 0
-4851 -4966 0
-4852 -4967 0
-4853 -4968 0
-4854 -4969 0
-4855 -4970 0
-4851 -5036 0
-4852 -5037 0
-4853 -5038 0
-4854 -5039 0
-4855 -5040 0
-4856 -4961 0
-4857 -4962 0
-4858 -4963 0
-4859 -4964 0
-4860 -4965 0
-4856 -4971 0
-4857 -4972 0
-4858 -4973 0
-4859 -4974 0
-4860 -4975 0
-4856 -5051 0
-4857 -5052 0
-4858 -5053 0
-4859 -5054 0
-4860 -5055 0
-4861 -4866 0
-4862 -4867 0
-4863 -4868 0
-4864 -4869 0
-4865 -4870 0
-4861 -4966 0
-4862 -4967 0
-4863 -4968 0
-4864 -4969 0
-4865 -4970 0
-4861 -4976 0
-4862 -4977 0
-4863 -4978 0
-4864 -4979 0
-4865 -4980 0
-4861 -5046 0
-4862 -5047 0
-4863 -5048 0
-4864 -5049 0
-4865 -5050 0
-4866 -4971 0
-4867 -4972 0
-4868 -4973 0
-4869 -4974 0
-4870 -4975 0
-4866 -4981 0
-4867 -4982 0
-4868 -4983 0
-4869 -4984 0
-4870 -4985 0
-4866 -5061 0
-4867 -5062 0
-4868 -5063 0
-4869 -5064 0
-4870 -5065 0
-4871 -4876 0
-4872 -4877 0
-4873 -4878 0
-4874 -4879 0
-4875 -4880 0
-4871 -4976 0
-4872 -4977 0
-4873 -4978 0
-4874 -4979 0
-4875 -4980 0
-4871 -4986 0
-4872 -4987 0
-4873 -4988 0
-4874 -4989 0
-4875 -4990 0
-4871 -5056 0
-4872 -5057 0
-4873 -5058 0
-4874 -5059 0
-4875 -5060 0
-4876 -4981 0
-4877 -4982 0
-4878 -4983 0
-4879 -4984 0
-4880 -4985 0
-4876 -4991 0
-4877 -4992 0
-4878 -4993 0
-4879 -4994 0
-4880 -4995 0
-4876 -5071 0
-4877 -5072 0
-4878 -5073 0
-4879 -5074 0
-4880 -5075 0
-4881 -4886 0
-4882 -4887 0
-4883 -4888 0
-4884 -4889 0
-4885 -4890 0
-4881 -4986 0
-4882 -4987 0
-4883 -4988 0
-4884 -4989 0
-4885 -4990 0
-4881 -4996 0
-4882 -4997 0
-4883 -4998 0
-4884 -4999 0
-4885 -5000 0
-4881 -5066 0
-4882 -5067 0
-4883 -5068 0
-4884 -5069 0
-4885 -5070 0
-4886 -4991 0
-4887 -4992 0
-4888 -4993 0
-4889 -4994 0
-4890 -4995 0
-4886 -5001 0
-4887 -5002 0
-4888 -5003 0
-4889 -5004 0
-4890 -5005 0
-4886 -5081 0
-4887 -5082 0
-4888 -5083 0
-4889 -5084 0
-4890 -5085 0
-4891 -4946 0
-4892 -4947 0
-4893 -4948 0
-4894 -4949 0
-4895 -4950 0
-4891 -4996 0
-4892 -4997 0
-4893 -4998 0
-4894 -4999 0
-4895 -5000 0
-4891 -5076 0
-4892 -5077 0
-4893 -5078 0
-4894 -5079 0
-4895 -5080 0
-4896 -4916 0
-4897 -4917 0
-4898 -4918 0
-4899 -4919 0
-4900 -4920 0
-4896 -4921 0
-4897 -4922 0
-4898 -4923 0
-4899 -4924 0
-4900 -4925 0
-4901 -4926 0
-4902 -4927 0
-4903 -4928 0
-4904 -4929 0
-4905 -4930 0
-4901 -4931 0
-4902 -4932 0
-4903 -4933 0
-4904 -4934 0
-4905 -4935 0
-4906 -4931 0
-4907 -4932 0
-4908 -4933 0
-4909 -4934 0
-4910 -4935 0
-4906 -4936 0
-4907 -4937 0
-4908 -4938 0
-4909 -4939 0
-4910 -4940 0
-4911 -4916 0
-4912 -4917 0
-4913 -4918 0
-4914 -4919 0
-4915 -4920 0
-4911 -4941 0
-4912 -4942 0
-4913 -4943 0
-4914 -4944 0
-4915 -4945 0
-4916 -5026 0
-4917 -5027 0
-4918 -5028 0
-4919 -5029 0
-4920 -5030 0
-4916 -5081 0
-4917 -5082 0
-4918 -5083 0
-4919 -5084 0
-4920 -5085 0
-4921 -5031 0
-4922 -5032 0
-4923 -5033 0
-4924 -5034 0
-4925 -5035 0
-4921 -5036 0
-4922 -5037 0
-4923 -5038 0
-4924 -5039 0
-4925 -5040 0
-4926 -5041 0
-4927 -5042 0
-4928 -5043 0
-4929 -5044 0
-4930 -5045 0
-4926 -5046 0
-4927 -5047 0
-4928 -5048 0
-4929 -5049 0
-4930 -5050 0
-4931 -5051 0
-4932 -5052 0
-4933 -5053 0
-4934 -5054 0
-4935 -5055 0
-4931 -5056 0
-4932 -5057 0
-4933 -5058 0
-4934 -5059 0
-4935 -5060 0
-4936 -5061 0
-4937 -5062 0
-4938 -5063 0
-4939 -5064 0
-4940 -5065 0
-4936 -5066 0
-4937 -5067 0
-4938 -5068 0
-4939 -5069 0
-4940 -5070 0
-4941 -5071 0
-4942 -5072 0
-4943 -5073 0
-4944 -5074 0
-4945 -5075 0
-4941 -5076 0
-4942 -5077 0
-4943 -5078 0
-4944 -5079 0
-4945 -5080 0
-4946 -5031 0
-4947 -5032 0
-4948 -5033 0
-4949 -5034 0
-4950 -5035 0
-4951 -5026 0
-4952 -5027 0
-4953 -5028 0
-4954 -5029 0
-4955 -5030 0
-4956 -5041 0
-4957 -5042 0
-4958 -5043 0
-4959 -5044 0
-4960 -5045 0
-4961 -5011 0
-4962 -5012 0
-4963 -5013 0
-4964 -5014 0
-4965 -5015 0
-4961 -5036 0
-4962 -5037 0
-4963 -5038 0
-4964 -5039 0
-4965 -5040 0
-4966 -5051 0
-4967 -5052 0
-4968 -5053 0
-4969 -5054 0
-4970 -5055 0
-4971 -5046 0
-4972 -5047 0
-4973 -5048 0
-4974 -5049 0
-4975 -5050 0
-4976 -5061 0
-4977 -5062 0
-4978 -5063 0
-4979 -5064 0
-4980 -5065 0
-4981 -5056 0
-4982 -5057 0
-4983 -5058 0
-4984 -5059 0
-4985 -5060 0
-4986 -5016 0
-4987 -5017 0
-4988 -5018 0
-4989 -5019 0
-4990 -5020 0
-4986 -5071 0
-4987 -5072 0
-4988 -5073 0
-4989 -5074 0
-4990 -5075 0
-4991 -5021 0
-4992 -5022 0
-4993 -5023 0
-4994 -5024 0
-4995 -5025 0
-4991 -5066 0
-4992 -5067 0
-4993 -5068 0
-4994 -5069 0
-4995 -5070 0
-4996 -5081 0
-4997 -5082 0
-4998 -5083 0
-4999 -5084 0
-5000 -5085 0
-5001 -5006 0
-5002 -5007 0
-5003 -5008 0
-5004 -5009 0
-5005 -5010 0
-5001 -5076 0
-5002 -5077 0
-5003 -5078 0
-5004 -5079 0
-5005 -5080 0
-5006 -5031 0
-5007 -5032 0
-5008 -5033 0
-5009 -5034 0
-5010 -5035 0
-5011 -5051 0
-5012 -5052 0
-5013 -5053 0
-5014 -5054 0
-5015 -5055 0
-5016 -5056 0
-5017 -5057 0
-5018 -5058 0
-5019 -5059 0
-5020 -5060 0
-5021 -5081 0
-5022 -5082 0
-5023 -5083 0
-5024 -5084 0
-5025 -5085 0
